%nprocshared=8
%mem=14GB
# opt=modredundant b3lyp/6-31g(d,p)

QM dihedral opt

0 1
 C                  3.76025800    0.11551400   -0.20051800
 C                  2.38352000   -0.53123300   -0.19554900
 O                  2.24714000   -1.71479900   -0.49336800
 N                  1.30244400    0.27465500    0.11555300
 C                  0.03597200   -0.41916800    0.29813700
 C                 -1.18559000    0.39118600   -0.15667900
 O                 -1.07731600    1.50048800   -0.67189900
 N                 -2.41181300   -0.19087700    0.06093000
 C                 -2.63087700   -1.55543400    0.51482100
 C                 -3.60849600    0.51628000   -0.37513500
 H                  4.46846700   -0.63439100   -0.55082200
 H                  4.05669100    0.44520800    0.80066900
 H                  3.79834100    0.98580300   -0.86291400
 H                  0.11213200   -1.35340000   -0.26236300
 H                 -0.09370000   -0.69535500    1.35740000
 H                 -1.71937700   -2.00406700    0.90327700
 H                 -3.38060600   -1.56568900    1.31502600
 H                 -3.00284100   -2.18841500   -0.30262000
 H                 -4.34070900    0.55270700    0.43993300
 H                 -3.32738400    1.52651900   -0.66572500
 H                 -4.07193300    0.01094800   -1.23274400
 C                  1.47298200    1.54873900    0.81392600
 H                  2.33405000    2.08583700    0.41808800
 H                  0.59061900    2.16082200    0.63937400
 H                  1.61662500    1.40620900    1.89616100

D 2 4 5 6 F
D 4 5 6 8 S 37 10.000000

