%nprocshared=8
%mem=14GB
# opt=modredundant b3lyp/6-31g(d,p)

QM dihedral opt

0 1
 C                  3.47820800   -0.16306300    0.79981000
 C                  2.37029800   -0.17985900   -0.24359500
 O                  2.60951500   -0.44298600   -1.41634300
 N                  1.07311000    0.06751600    0.17666900
 C                  0.11149200    0.23723700   -0.93027800
 C                 -1.30338900    0.59365300   -0.46250200
 O                 -1.70808200    1.74770700   -0.56668900
 N                 -2.07831500   -0.41724500    0.05266100
 C                 -1.65953100   -1.80718300    0.16334900
 C                 -3.46631100   -0.13748700    0.39500200
 H                  4.38295800   -0.52721200    0.31418800
 H                  3.24826300   -0.79997900    1.65952600
 H                  3.66290800    0.85006600    1.17243000
 H                  0.41980000    1.06799400   -1.57216900
 H                  0.12961400   -0.66517800   -1.54497200
 H                 -0.57391800   -1.89136100    0.14537700
 H                 -2.00955300   -2.21491600    1.11832500
 H                 -2.08313400   -2.42467500   -0.64081400
 H                 -3.66725300   -0.41321200    1.43705800
 H                 -3.64544700    0.92718000    0.25618100
 H                 -4.14688500   -0.70893300   -0.24923000
 C                  0.79547500    0.77955800    1.42570000
 H                  1.54396900    0.52559600    2.17404100
 H                  0.78534200    1.86876300    1.28806400
 H                 -0.17913800    0.47906300    1.81601100

D 2 4 5 6 F
D 4 5 6 8 S 37 10.000000

