%nprocshared=8
%mem=14GB
# opt=modredundant b3lyp/6-31g(d,p)

QM dihedral opt

0 1
 C                  2.81884000   -0.79326400    1.08559200
 C                  1.54807300   -0.76301000    0.24692200
 O                  0.80837100   -1.73701800    0.18154500
 N                  1.23696000    0.40537400   -0.41843200
 C                  0.09113500    0.36891400   -1.33142500
 C                 -1.25771600   -0.13841800   -0.78610500
 O                 -1.91088700   -0.90178900   -1.48628400
 N                 -1.72573600    0.34461900    0.41074800
 C                 -1.10101700    1.37407500    1.22031600
 C                 -2.94294200   -0.23352500    0.96223500
 H                  2.84264000   -1.75512000    1.59645000
 H                  2.84159400    0.00863400    1.83055200
 H                  3.71652900   -0.70064600    0.46532400
 H                 -0.05113200    1.38490900   -1.71653900
 H                  0.28979000   -0.28662600   -2.18437500
 H                 -0.38823600    1.95933700    0.64207700
 H                 -1.87483200    2.05858200    1.58837000
 H                 -0.57835100    0.95555100    2.09172400
 H                 -3.72955300    0.52687400    1.05165300
 H                 -3.28070700   -1.02331100    0.29410500
 H                 -2.74911600   -0.65034100    1.95845600
 C                  2.17011400    1.50943800   -0.59748200
 H                  2.93228600    1.50235500    0.18006800
 H                  2.67372300    1.46964700   -1.57369500
 H                  1.63800300    2.46539700   -0.53278800

D 2 4 5 6 F
D 4 5 6 8 S 37 10.000000

