%nprocshared=8
%mem=14GB
# opt=modredundant b3lyp/6-31g(d,p)

QM dihedral opt

0 1
 C                  3.37080800   -0.09758000    0.78608700
 C                  2.21592900   -0.34479600   -0.17181700
 O                  2.30825700   -1.17116600   -1.07427700
 N                  1.04367500    0.35814900    0.05001200
 C                  0.05613600    0.33292300   -1.03728700
 C                 -1.37511300    0.53309700   -0.52795900
 O                 -1.94503300    1.60614700   -0.71609200
 N                 -1.96387200   -0.50825200    0.14251300
 C                 -1.35131300   -1.80260000    0.40135300
 C                 -3.31862300   -0.34378600    0.65006900
 H                  4.17972200   -0.76989300    0.50298600
 H                  3.08581900   -0.29454900    1.82450100
 H                  3.72707000    0.93628400    0.73117100
 H                  0.22933900    1.16483800   -1.73027200
 H                  0.19554200   -0.59744400   -1.58638900
 H                 -0.34665700   -1.86363200   -0.00983000
 H                 -1.28808900   -1.98517900    1.48197300
 H                 -1.95801200   -2.60430200   -0.03913400
 H                 -3.34079200   -0.47765800    1.73899500
 H                 -3.66235700    0.65739800    0.39680800
 H                 -3.98920300   -1.08655300    0.20028800
 C                  1.01934600    1.54348200    0.90845300
 H                  1.51417800    1.34018200    1.85870400
 H                  1.50178100    2.41052000    0.43516100
 H                 -0.01577300    1.81641200    1.11691800

D 2 4 5 6 F
D 4 5 6 8 S 37 10.000000

