%nprocshared=8
%mem=14GB
# opt=modredundant b3lyp/6-31g(d,p)

QM dihedral opt

0 1
 C                  2.82827400   -1.42096400   -0.38463300
 C                  1.45719200   -0.77240700   -0.23256200
 O                  0.44141400   -1.40944800   -0.49482600
 N                  1.41170700    0.52328700    0.22408600
 C                  0.17284700    1.31335900    0.23793000
 C                 -1.07713900    0.70137400   -0.42377100
 O                 -1.31023700    0.96697300   -1.59665600
 N                 -1.98023100    0.05519900    0.38682000
 C                 -1.59494000   -0.62454800    1.61414300
 C                 -3.16149000   -0.49562900   -0.26682700
 H                  2.66359600   -2.41283700   -0.80348900
 H                  3.33810000   -1.52687800    0.57878900
 H                  3.48289900   -0.85318800   -1.05279400
 H                 -0.03903300    1.62223400    1.26985600
 H                  0.35330200    2.22421000   -0.34271100
 H                 -0.75403300   -0.12490300    2.09490600
 H                 -2.43831400   -0.61912800    2.31285900
 H                 -1.29837800   -1.66154100    1.41374200
 H                 -3.98061700   -0.55149600    0.45671900
 H                 -3.44085400    0.15058300   -1.09708400
 H                 -2.96541600   -1.50259200   -0.66024500
 C                  2.59272800    1.32037000    0.52736000
 H                  3.46652200    0.68992900    0.67728500
 H                  2.81105700    2.04035100   -0.27353700
 H                  2.42659500    1.88632700    1.45138500

D 2 4 5 6 F
D 4 5 6 8 S 37 10.000000

