%nprocshared=8
%mem=14GB
# opt=modredundant b3lyp/6-31g(d,p)

QM dihedral opt

0 1
 C                  3.64917600    0.02066500   -0.45070400
 C                  2.26287400   -0.57159600   -0.24233000
 O                  2.00116000   -1.70425000   -0.64020000
 N                  1.32269000    0.20842600    0.39471400
 C                  0.01552600   -0.37196100    0.62546300
 C                 -1.10378400    0.37222000   -0.12736500
 O                 -0.86285700    1.36929200   -0.80095900
 N                 -2.37677400   -0.12187600    0.01883700
 C                 -2.72582100   -1.36144400    0.69413200
 C                 -3.46896800    0.52902300   -0.69201700
 H                  4.24314900   -0.72979100   -0.97075100
 H                  4.13779300    0.26722700    0.49739900
 H                  3.61312300    0.93066100   -1.05787000
 H                  0.07618400   -1.41077100    0.29342400
 H                 -0.20764300   -0.36755300    1.70267400
 H                 -1.89297600   -1.75276200    1.27438600
 H                 -3.56419100   -1.18940200    1.37998900
 H                 -3.03285500   -2.13173200   -0.02661100
 H                 -4.28833900    0.75502300    0.00065800
 H                 -3.09321100    1.45016500   -1.13319200
 H                 -3.85882000   -0.11954100   -1.48745700
 C                  1.57506100    1.51591500    0.98486300
 H                  2.54334700    1.90063500    0.67181500
 H                  0.80549000    2.21614100    0.65459000
 H                  1.56673700    1.45858600    2.08311500

D 2 4 5 6 F
D 4 5 6 8 S 37 10.000000

