%nprocshared=8
%mem=14GB
# opt=modredundant b3lyp/6-31g(d,p)

QM dihedral opt

0 1
 C                  3.24737200    0.47591800   -0.80554800
 C                  1.96788700    0.62596100    0.00318100
 O                  1.61755300    1.72845800    0.42757400
 N                  1.23146000   -0.50904100    0.22699500
 C                  0.05390500   -0.42578000    1.09489300
 C                 -1.24595600   -0.66946700    0.30963200
 O                 -1.56779500   -1.83395200    0.05947900
 N                 -1.99223800    0.40122600   -0.09477700
 C                 -1.66214800    1.80757200    0.11248000
 C                 -3.25083400    0.15014100   -0.78617800
 H                  3.75313300    1.44062300   -0.79795400
 H                  3.03085300    0.19896200   -1.84292700
 H                  3.91195700   -0.28768100   -0.39013400
 H                  0.10096500   -1.23439400    1.83103600
 H                  0.09276700    0.52884600    1.61396900
 H                 -1.85906700    2.35655100   -0.81536700
 H                 -2.28807000    2.24873900    0.90021900
 H                 -0.60962300    1.94667000    0.35747700
 H                 -3.21428200    0.54683900   -1.80833100
 H                 -3.42190200   -0.92404000   -0.82029500
 H                 -4.07653300    0.64113300   -0.25698200
 C                  1.62027000   -1.84447300   -0.22287900
 H                  2.12454400   -1.79982200   -1.18868800
 H                  2.28450800   -2.33997500    0.49906400
 H                  0.71515500   -2.44301700   -0.33651900

D 2 4 5 6 F
D 4 5 6 8 S 37 10.000000

