%nprocshared=8
%mem=14GB
# opt=modredundant b3lyp/6-31g(d,p)

QM dihedral opt

0 1
 C                  3.40798200   -0.11072000    0.81092900
 C                  2.28499400   -0.27454400   -0.20302000
 O                  2.45844800   -0.91144700   -1.23622800
 N                  1.05095900    0.27739000    0.10282300
 C                  0.07960300    0.30013600   -1.00054200
 C                 -1.36101300    0.53380700   -0.53133300
 O                 -1.91265400    1.60367500   -0.77463000
 N                 -1.98336300   -0.47648300    0.15989300
 C                 -1.42622200   -1.80181400    0.38632300
 C                 -3.37255400   -0.30081300    0.56093400
 H                  4.24947000   -0.70603200    0.45847400
 H                  3.11659800   -0.45332500    1.80865300
 H                  3.72468500    0.93415600    0.89511600
 H                  0.29254800    1.13167800   -1.68197200
 H                  0.19526300   -0.62630300   -1.56398200
 H                 -0.35470300   -1.81696500    0.20166600
 H                 -1.59116900   -2.09598200    1.42955700
 H                 -1.91143300   -2.55130200   -0.25411000
 H                 -3.48739700   -0.50671500    1.63172400
 H                 -3.66599600    0.72543500    0.34784200
 H                 -4.02707500   -0.98678500    0.00740500
 C                  0.89887900    1.32408500    1.11263400
 H                  1.59889600    1.16665400    1.93130800
 H                  1.06177900    2.32669300    0.69361700
 H                 -0.11100100    1.29379800    1.52700300

D 2 4 5 6 F
D 4 5 6 8 S 37 10.000000

