%nprocshared=8
%mem=14GB
# opt=modredundant b3lyp/6-31g(d,p)

QM dihedral opt

0 1
 C                  2.82918300   -1.42925700   -0.39647900
 C                  1.46745500   -0.79756000   -0.13684700
 O                  0.44242800   -1.46206000   -0.26274900
 N                  1.43714100    0.51621800    0.26198200
 C                  0.18095800    1.27294600    0.33287300
 C                 -1.02071000    0.67099100   -0.41992500
 O                 -1.11426600    0.87640500   -1.62442600
 N                 -2.03294600    0.10551800    0.31913000
 C                 -1.80794000   -0.56516200    1.59159100
 C                 -3.17182100   -0.40514800   -0.43654100
 H                  2.64530400   -2.43475000   -0.77276800
 H                  3.42453400   -1.50198700    0.51996100
 H                  3.41157800   -0.86938700   -1.13442000
 H                 -0.05482400    1.49464300    1.38089700
 H                  0.34800900    2.23028600   -0.17102500
 H                 -1.00955400   -0.08644100    2.15741900
 H                 -2.72326400   -0.51928100    2.19080800
 H                 -1.52635700   -1.61428800    1.43886600
 H                 -4.05912500   -0.40053600    0.20381600
 H                 -3.33517600    0.22986500   -1.30537200
 H                 -2.99110800   -1.43097900   -0.78598800
 C                  2.62425400    1.34210100    0.43621500
 H                  3.51385900    0.72881300    0.56501500
 H                  2.78009200    2.01488900   -0.41837900
 H                  2.51309500    1.95877600    1.33546400

D 2 4 5 6 F
D 4 5 6 8 S 37 10.000000

