%nprocshared=8
%mem=14GB
# opt=modredundant b3lyp/6-31g(d,p)

QM dihedral opt

0 1
 C                  3.73234400    0.09271600   -0.28254800
 C                  2.35194900   -0.54312200   -0.21528500
 O                  2.18431500   -1.71132800   -0.55592400
 N                  1.30529100    0.25306300    0.20792900
 C                  0.02859600   -0.40934300    0.41134300
 C                 -1.16259900    0.38362700   -0.14913200
 O                 -1.01190700    1.46592700   -0.70863000
 N                 -2.40422200   -0.17697600    0.02920500
 C                 -2.66693100   -1.49683900    0.58013000
 C                 -3.57275500    0.52558200   -0.48279700
 H                  4.41342700   -0.65611400   -0.68491100
 H                  4.08667000    0.40358900    0.70563700
 H                  3.74119200    0.97309800   -0.93279100
 H                  0.10992300   -1.38458200   -0.07388400
 H                 -0.13635500   -0.59129000    1.48550400
 H                 -1.76147200   -1.96349500    0.96107100
 H                 -3.38725200   -1.42664800    1.40497100
 H                 -3.09508000   -2.15886600   -0.18447400
 H                 -4.31715000    0.65277400    0.31251400
 H                 -3.25681900    1.49977400   -0.85077400
 H                 -4.03736900   -0.03785800   -1.30233300
 C                  1.50520400    1.53235800    0.88304500
 H                  2.37637800    2.04579800    0.47887400
 H                  0.63515100    2.16162800    0.70157600
 H                  1.64716400    1.40291400    1.96698900

D 2 4 5 6 F
D 4 5 6 8 S 37 10.000000

