%nprocshared=8
%mem=14GB
# opt=modredundant b3lyp/6-31g(d,p)

QM dihedral opt

0 1
 C                  2.78705400   -1.37556200   -0.21610500
 C                  1.49238400   -0.62863700   -0.51022000
 O                  0.65837600   -1.09295900   -1.27867200
 N                  1.27433800    0.56896600    0.13708300
 C                  0.10693900    1.36814000   -0.25001700
 C                 -1.24374100    0.66032600   -0.47092700
 O                 -1.88140800    0.94674900   -1.47662500
 N                 -1.75062400   -0.14590200    0.51830100
 C                 -1.06304100   -0.51256400    1.74210100
 C                 -2.97686400   -0.88227000    0.24381200
 H                  2.73730300   -2.32311700   -0.75123900
 H                  2.91730000   -1.57491100    0.85241300
 H                  3.66403600   -0.81966400   -0.56364300
 H                 -0.03152800    2.13105500    0.52561300
 H                  0.28801600    1.88793000   -1.19624400
 H                 -0.31927200    0.23342800    2.01815900
 H                 -1.79406000   -0.57740900    2.55604000
 H                 -0.56138400   -1.48701900    1.65717000
 H                 -3.70099200   -0.72971800    1.05311000
 H                 -3.39227400   -0.51653100   -0.69307600
 H                 -2.77348800   -1.95765400    0.15616600
 C                  2.29596400    1.28681500    0.88722400
 H                  3.09989500    0.61831500    1.18958100
 H                  2.73257500    2.10703700    0.30007600
 H                  1.85996600    1.71900100    1.79536700

D 2 4 5 6 F
D 4 5 6 8 S 37 10.000000

