%nprocshared=8
%mem=14GB
# opt=modredundant b3lyp/6-31g(d,p)

QM dihedral opt

0 1
 C                  2.81459000   -1.41743700   -0.37026300
 C                  1.44807000   -0.74402800   -0.31050000
 O                  0.44803600   -1.34405500   -0.69139800
 N                  1.38692500    0.53086500    0.20261500
 C                  0.16329300    1.34410500    0.15455100
 C                 -1.12169900    0.71773700   -0.42191200
 O                 -1.46894800    1.02641800   -1.55501400
 N                 -1.92819100    0.00809300    0.43602100
 C                 -1.42568400   -0.65783900    1.62654700
 C                 -3.13247300   -0.58354000   -0.13305000
 H                  2.66263900   -2.40092300   -0.81299700
 H                  3.25385800   -1.54236100    0.62492000
 H                  3.52433500   -0.85472100   -0.98453900
 H                 -0.02926200    1.73243900    1.16370900
 H                  0.34948400    2.20551200   -0.49598700
 H                 -0.57340200   -0.12359900    2.04687400
 H                 -2.21401900   -0.69014100    2.38632600
 H                 -1.10408500   -1.68259700    1.40109400
 H                 -3.90193200   -0.65680100    0.64201600
 H                 -3.48293600    0.04746800   -0.94768400
 H                 -2.93144200   -1.58818500   -0.52988300
 C                  2.55669400    1.30352400    0.59899100
 H                  3.41846000    0.66021900    0.76230300
 H                  2.81851500    2.05545700   -0.15851800
 H                  2.34920400    1.83149200    1.53702500

D 2 4 5 6 F
D 4 5 6 8 S 37 10.000000

