%nprocshared=8
%mem=14GB
# opt=modredundant b3lyp/6-31g(d,p)

QM dihedral opt

0 1
 C                  2.80188400   -1.40960500   -0.35940400
 C                  1.44618000   -0.71265200   -0.37714200
 O                  0.46964000   -1.27300300   -0.86349900
 N                  1.36235600    0.53790500    0.19259600
 C                  0.15226400    1.36460600    0.07833800
 C                 -1.15883600    0.72312100   -0.41750000
 O                 -1.60084900    1.06487200   -1.50719500
 N                 -1.87984700   -0.03938300    0.46995000
 C                 -1.29339500   -0.68200200    1.63316800
 C                 -3.10072700   -0.66055800   -0.02653400
 H                  2.66277500   -2.38322600   -0.82747900
 H                  3.17684300   -1.55575100    0.65877300
 H                  3.55722500   -0.84995300   -0.92008800
 H                 -0.02463200    1.83111600    1.05689200
 H                  0.33940600    2.17096400   -0.63923100
 H                 -0.43466200   -0.12056100    2.00069000
 H                 -2.03693800   -0.73218400    2.43612400
 H                 -0.95814600   -1.70084500    1.39857500
 H                 -3.82905900   -0.73617300    0.78748800
 H                 -3.50311900   -0.04699000   -0.83031200
 H                 -2.90145100   -1.66765300   -0.41798800
 C                  2.51514100    1.28997700    0.67028700
 H                  3.36667100    0.63673400    0.84744500
 H                  2.81440100    2.06743700   -0.04678600
 H                  2.26773200    1.78516200    1.61634900

D 2 4 5 6 F
D 4 5 6 8 S 37 10.000000

