%nprocshared=8
%mem=14GB
# opt=modredundant b3lyp/6-31g(d,p)

QM dihedral opt

0 1
 C                  2.88740100   -1.10894500   -0.81644000
 C                  1.58361800   -0.83334600   -0.08782500
 O                  0.67162600   -1.65948300   -0.08359000
 N                  1.46171900    0.34798100    0.60747400
 C                  0.10860700    0.64823600    1.07838400
 C                 -0.89464800    0.66704500   -0.09035400
 O                 -0.60469500    1.30969100   -1.09878800
 N                 -2.09862900    0.04503900    0.07966900
 C                 -2.33042800   -0.96237400    1.11670900
 C                 -3.04812400    0.08734100   -1.02785500
 H                  2.84450500   -2.13263100   -1.18678200
 H                  3.75773700   -0.99715500   -0.16250600
 H                  3.01419400   -0.42957100   -1.66581700
 H                 -0.16291500   -0.06254600    1.85898200
 H                  0.11583400    1.64872500    1.51871400
 H                 -2.35815700   -0.52009600    2.11851000
 H                 -3.30432900   -1.42082400    0.93690300
 H                 -1.56288400   -1.74103400    1.07981400
 H                 -4.06290300    0.22645200   -0.64158800
 H                 -2.78253600    0.91860700   -1.67841300
 H                 -3.01780800   -0.84012300   -1.61447600
 C                  2.32513100    1.50081500    0.35619500
 H                  3.33967200    1.17646500    0.12684900
 H                  1.94106100    2.10847600   -0.47130100
 H                  2.37211500    2.11982600    1.25724000

D 2 4 5 6 F
D 4 5 6 8 S 37 10.000000

