%nprocshared=8
%mem=14GB
# opt=modredundant b3lyp/6-31g(d,p)

QM dihedral opt

0 1
 C                  3.10215200    0.12033000    1.03551700
 C                  1.80478200   -0.49208000    0.52744800
 O                  1.32891300   -1.49560400    1.04202100
 N                  1.15523100    0.14300900   -0.51907100
 C                  0.05769900   -0.61119100   -1.12987400
 C                 -1.35379000   -0.58660700   -0.50449200
 O                 -2.05630100   -1.56707100   -0.73136300
 N                 -1.80530500    0.47094100    0.24268900
 C                 -1.16211200    1.76326300    0.41014600
 C                 -3.09073800    0.33068200    0.91697500
 H                  3.42370900   -0.46920900    1.89324800
 H                  2.96887800    1.16163500    1.34669600
 H                  3.88859500    0.09811200    0.27376700
 H                 -0.04567900   -0.27977500   -2.16869400
 H                  0.30094100   -1.67463900   -1.14223000
 H                 -0.44675300    1.95992200   -0.38317000
 H                 -1.92925500    2.54516800    0.36697700
 H                 -0.64553200    1.84831400    1.37546500
 H                 -3.83758600    1.00778000    0.48229000
 H                 -3.43228600   -0.69598800    0.80322700
 H                 -2.98276700    0.57187700    1.98120900
 C                  1.82777900    1.12935900   -1.35965800
 H                  2.46812200    1.77709400   -0.76087200
 H                  2.43991500    0.66506200   -2.14614800
 H                  1.08468400    1.76586500   -1.84872500

D 2 4 5 6 F
D 4 5 6 8 S 37 10.000000

