%nprocshared=8
%mem=14GB
# opt=modredundant b3lyp/6-31g(d,p)

QM dihedral opt

0 1
 C                  3.52003500   -0.08107600    0.79066300
 C                  2.40581700   -0.16755400   -0.24283200
 O                  2.65180100   -0.40199800   -1.42079300
 N                  1.09963000   -0.01578000    0.18733500
 C                  0.12033500    0.08228700   -0.91527300
 C                 -1.25890600    0.57194400   -0.46354900
 O                 -1.54694800    1.76129900   -0.55886900
 N                 -2.13954500   -0.36376100    0.02358700
 C                 -1.84298000   -1.77994300    0.18452100
 C                 -3.50243200    0.04439600    0.33623000
 H                  4.44757500   -0.34840200    0.28555500
 H                  3.35895900   -0.76373600    1.63093800
 H                  3.61812300    0.93189600    1.19501900
 H                  0.46569400    0.82129200   -1.64292900
 H                  0.07451100   -0.87614900   -1.43780400
 H                 -0.76849200   -1.95686500    0.20765400
 H                 -2.25742200   -2.13013000    1.13661200
 H                 -2.28808800   -2.38396700   -0.61811700
 H                 -3.73485400   -0.15742200    1.38894200
 H                 -3.59299300    1.11153600    0.14168200
 H                 -4.22028300   -0.50490000   -0.28584100
 C                  0.77310900    0.61672000    1.46605300
 H                  1.55390400    0.40540400    2.19416100
 H                  0.65626100    1.70371100    1.37275600
 H                 -0.16219700    0.20946200    1.85734200

D 2 4 5 6 F
D 4 5 6 8 S 37 10.000000

