%nprocshared=8
%mem=14GB
# opt=modredundant b3lyp/6-31g(d,p)

QM dihedral opt

0 1
 C                  2.79057600   -1.39979900   -0.34631300
 C                  1.45143000   -0.67784400   -0.43777400
 O                  0.50738700   -1.19293700   -1.02656600
 N                  1.33682000    0.54393300    0.18887700
 C                  0.14038100    1.37727600    0.00628100
 C                 -1.19126300    0.72211900   -0.41187500
 O                 -1.71252400    1.08819200   -1.45786300
 N                 -1.83508200   -0.08784300    0.49181800
 C                 -1.19078500   -0.69586000    1.64157600
 C                 -3.06667600   -0.73365800    0.05796600
 H                  2.66767600   -2.36004600   -0.84563800
 H                  3.09645400   -1.57389100    0.69031100
 H                  3.58964300   -0.84131200   -0.84434500
 H                 -0.02104500    1.92246900    0.94577900
 H                  0.32612800    2.12073300   -0.77654900
 H                 -0.34297200   -0.09942000    1.97626000
 H                 -1.90813800   -0.76442200    2.46689200
 H                 -0.82807000   -1.70675100    1.41082700
 H                 -3.76750600   -0.79119400    0.89772400
 H                 -3.50102300   -0.14670800   -0.74894700
 H                 -2.87107200   -1.75076800   -0.30837400
 C                  2.46671600    1.27580400    0.74650100
 H                  3.30410800    0.61153700    0.94926000
 H                  2.80904000    2.06990600    0.06767100
 H                  2.17342300    1.74696300    1.69152200

D 2 4 5 6 F
D 4 5 6 8 S 37 10.000000

