%nprocshared=8
%mem=14GB
# opt=modredundant b3lyp/6-31g(d,p)

QM dihedral opt

0 1
 C                  3.15962000    0.72317000   -0.85003700
 C                  1.83851600    0.74440400   -0.09507000
 O                  1.24195400    1.80754200    0.08677800
 N                  1.35287900   -0.44284900    0.38588800
 C                  0.07721900   -0.41964000    1.10256400
 C                 -1.10820400   -0.71010400    0.16404200
 O                 -1.17994400   -1.82675700   -0.35508500
 N                 -2.04895300    0.25822300   -0.03980800
 C                 -1.97925300    1.62791700    0.46528400
 C                 -3.22917800   -0.07552600   -0.82873800
 H                  3.43129700    1.75876400   -1.05102400
 H                  3.06726800    0.19235400   -1.80338100
 H                  3.95872700    0.24553700   -0.27520900
 H                  0.08378800   -1.23611700    1.83117800
 H                  0.00257900    0.52475100    1.63618900
 H                 -2.46540200    2.28616300   -0.26102100
 H                 -2.50684900    1.73793600    1.42251000
 H                 -0.94395800    1.95498100    0.55938500
 H                 -3.25609400    0.51573000   -1.75220800
 H                 -3.19146500   -1.13372500   -1.08012600
 H                 -4.13942800    0.13802600   -0.25575300
 C                  1.92803000   -1.76116600    0.13232100
 H                  2.77973100   -1.68828500   -0.54098000
 H                  2.26649100   -2.21932100    1.07109900
 H                  1.16925100   -2.40502900   -0.31896500

D 2 4 5 6 F
D 4 5 6 8 S 37 10.000000

