%nprocshared=8
%mem=14GB
# opt=modredundant b3lyp/6-31g(d,p)

QM dihedral opt

0 1
 C                  3.26921400   -0.34774700    0.78773600
 C                  2.03016200   -0.52849200   -0.07532700
 O                  1.82253100   -1.58816200   -0.66744000
 N                  1.15302300    0.52691100   -0.14024500
 C                  0.03841600    0.45792000   -1.08951000
 C                 -1.31844100    0.62826700   -0.38811100
 O                 -1.78861000    1.76260400   -0.27785600
 N                 -1.94749800   -0.47963400    0.10870800
 C                 -1.43206500   -1.84274300    0.08544100
 C                 -3.23990500   -0.31470500    0.76081900
 H                  3.88166000   -1.24103200    0.67198500
 H                  3.00452600   -0.23410800    1.84441000
 H                  3.85024700    0.53250600    0.49576900
 H                  0.10480400    1.29929800   -1.78693300
 H                  0.13842300   -0.47207200   -1.64532300
 H                 -0.40927300   -1.89135300   -0.28534200
 H                 -1.43932400   -2.25298600    1.10313300
 H                 -2.06966800   -2.48481000   -0.53666300
 H                 -3.17311000   -0.57741300    1.82428900
 H                 -3.54921600    0.72414900    0.66336400
 H                 -3.98418400   -0.96989100    0.29248500
 C                  1.41019100    1.83282700    0.46448700
 H                  1.85162200    1.72486700    1.45628200
 H                  2.07897100    2.44691900   -0.15475200
 H                  0.45905000    2.35748400    0.56721200

D 2 4 5 6 F
D 4 5 6 8 S 37 10.000000

