%nprocshared=8
%mem=14GB
# opt=modredundant b3lyp/6-31g(d,p)

QM dihedral opt

0 1
 C                  3.44198100   -0.13081700    0.81407200
 C                  2.33213200   -0.22757200   -0.22287800
 O                  2.54894100   -0.68753000   -1.33797900
 N                  1.05893000    0.17758100    0.14716000
 C                  0.09782100    0.26025100   -0.96627500
 C                 -1.33625000    0.55480000   -0.51252800
 O                 -1.82521000    1.66113000   -0.72238000
 N                 -2.02767200   -0.44984200    0.11980200
 C                 -1.53192700   -1.80464700    0.31439200
 C                 -3.42262900   -0.22725200    0.47566800
 H                  4.31752200   -0.62585300    0.39538300
 H                  3.17094200   -0.61353600    1.75803900
 H                  3.69785200    0.91153900    1.03171900
 H                  0.35955500    1.08572200   -1.63672300
 H                  0.17043000   -0.66243900   -1.54426800
 H                 -0.44737500   -1.84078100    0.23220300
 H                 -1.80275900   -2.14923500    1.31889900
 H                 -1.97313700   -2.50309600   -0.41023300
 H                 -3.58590000   -0.45469900    1.53566400
 H                 -3.66537600    0.81572200    0.28047600
 H                 -4.08334800   -0.87094900   -0.11962000
 C                  0.83806800    1.08652300    1.27256500
 H                  1.56310700    0.89260500    2.06092300
 H                  0.91270500    2.14040900    0.97222300
 H                 -0.15804800    0.92390300    1.68935700

D 2 4 5 6 F
D 4 5 6 8 S 37 10.000000

