%nprocshared=8
%mem=16GB
# opt=modredundant b3lyp/6-31g(d,p)

QM dihedral opt

0 1
 C                 -3.81060400   -0.76813400    0.56472900
 C                 -3.10995700    0.25999600   -0.29923900
 O                 -3.70974400    1.16607600   -0.84616400
 C                 -1.60256500    0.10592700   -0.52216600
 N                 -0.93043500   -0.65378000    0.53230200
 C                  0.43719500   -1.02141300    0.20511700
 C                  1.42237400    0.16398700    0.33853000
 O                  1.03611800    1.20466800    0.86781800
 N                  2.70644300    0.00186200   -0.10855300
 C                  3.24097300   -1.21293400   -0.70060200
 C                  3.64970400    1.10497600    0.02105000
 H                 -4.88728000   -0.59758800    0.52587000
 H                 -3.45991400   -0.69964100    1.59990000
 H                 -3.56602900   -1.78174400    0.23128500
 H                 -1.50343600   -0.45638900   -1.46304100
 H                 -1.18720900    1.10718800   -0.70215300
 H                 -0.87744400   -0.05649400    1.35673400
 H                  0.76881200   -1.82046400    0.88313200
 H                  0.45741400   -1.44067700   -0.80644500
 H                  3.55476700   -1.03775300   -1.73818400
 H                  4.11915000   -1.55429000   -0.13786700
 H                  2.50826500   -2.01727400   -0.69599600
 H                  3.12973500    1.95176800    0.46492400
 H                  4.49378100    0.81754600    0.66044000
 H                  4.04361400    1.38886000   -0.96258200

D 7 6 5 4 S 36 10.000000

