%nprocshared=8
%mem=16GB
# opt=modredundant b3lyp/6-31g(d,p)

QM dihedral opt

0 1
 C                  0.29578200   -0.39724200    2.80975800
 C                  1.49887200   -0.10321100    1.93115200
 O                  2.29007700    0.79512300    2.22356400
 N                  1.69360800   -0.85234600    0.79467800
 C                  0.78333100   -1.90432200    0.33801600
 C                 -0.13478400   -1.51065100   -0.84372100
 O                 -1.29503700   -0.89304400   -0.28508100
 C                 -1.90637100    0.06212100   -1.14571500
 C                 -3.16231800    0.59981600   -0.50107000
 C                 -3.57512900    1.91190500   -0.75874400
 C                 -4.76179000    2.40474600   -0.21481700
 C                 -5.54603300    1.59212400    0.60517000
 C                 -5.13568900    0.28524700    0.87503600
 C                 -3.95393700   -0.20920400    0.32288600
 C                 -0.42774700   -2.83781800   -1.59847200
 C                  0.25003700   -3.95609000   -0.77119600
 C                  1.42162900   -3.24373200   -0.07404000
 C                  2.80715300   -0.41817600   -0.04746100
 C                  2.57673900    0.97253300   -0.67257000
 O                  1.54357600    1.17966600   -1.31302600
 N                  3.58119600    1.89054000   -0.58682700
 C                  4.70218500    1.79478000    0.34871600
 C                  3.43573100    3.14778500   -1.31190100
 H                  0.30364100    0.33186400    3.61924300
 H                  0.34171200   -1.40315700    3.24095000
 H                 -0.63391700   -0.31206000    2.24068500
 H                  0.11046600   -2.12086100    1.16901400
 H                  0.38043100   -0.78577200   -1.48144400
 H                 -1.20153100    0.87661100   -1.36181000
 H                 -2.16250100   -0.41202500   -2.10925500
 H                 -2.96045500    2.55328700   -1.38571500
 H                 -5.06768100    3.42609500   -0.42329100
 H                 -6.46686700    1.97589200    1.03491200
 H                 -5.73812800   -0.35166200    1.51698700
 H                 -3.62774400   -1.22175200    0.53490500
 H                 -1.50488600   -2.98968200   -1.71172800
 H                  0.00485100   -2.80082500   -2.60436300
 H                 -0.44441300   -4.34224000   -0.01530900
 H                  0.56811600   -4.80701600   -1.38034700
 H                  2.24260600   -3.09301800   -0.78553200
 H                  1.82675100   -3.79165700    0.78204500
 H                  3.73748300   -0.47745100    0.51753600
 H                  2.88844400   -1.10719900   -0.89097900
 H                  5.53178100    1.20004000   -0.05487700
 H                  5.07721500    2.80358500    0.53644300
 H                  4.36430700    1.38193300    1.29986800
 H                  4.36861600    3.38679000   -1.83392800
 H                  2.62587900    3.04364400   -2.03142100
 H                  3.19729400    3.97164200   -0.62736000

D 2 4 18 19 S 36 10.000000
D 4 18 19 21 S 36 10.000000

