%nprocshared=8
%mem=14GB
# opt=modredundant b3lyp/6-31g(d,p)

QM dihedral opt

0 1
 C                  3.52590200   -0.02426700   -0.58399600
 C                  2.15698700   -0.59799100   -0.25150800
 O                  1.80243400   -1.68542500   -0.69773600
 N                  1.34575100    0.13697200    0.58686400
 C                  0.00156700   -0.35556100    0.80163600
 C                 -1.02422000    0.33421400   -0.12278300
 O                 -0.67228600    1.21555400   -0.90063300
 N                 -2.33144700   -0.06845200   -0.01228500
 C                 -2.80604500   -1.16668300    0.81306600
 C                 -3.33394800    0.54524100   -0.87219100
 H                  4.02476300   -0.73720400   -1.23928600
 H                  4.13670700    0.12204300    0.31303200
 H                  3.44469500    0.93949900   -1.09621500
 H                  0.02037200   -1.42933500    0.60434800
 H                 -0.27922400   -0.19418300    1.85047900
 H                 -2.01815300   -1.55869300    1.45256400
 H                 -3.62959100   -0.83020100    1.45554900
 H                 -3.18014000   -1.99048000    0.19036200
 H                 -4.15810300    0.94576900   -0.26937000
 H                 -2.86129200    1.35049900   -1.43125000
 H                 -3.74633400   -0.19071600   -1.57440400
 C                  1.64013700    1.48881300    1.04441200
 H                  2.71572500    1.65808800    1.07544400
 H                  1.17043600    2.23708900    0.39848000
 H                  1.25654700    1.61455000    2.06335100

D 2 4 5 6 F
D 4 5 6 8 S 37 10.000000

