%nprocshared=8
%mem=14GB
# opt=modredundant b3lyp/6-31g(d,p)

QM dihedral opt

0 1
 C                  2.99693900   -0.17931000    1.15156900
 C                  1.71796400   -0.60348200    0.44368100
 O                  1.17069400   -1.66798000    0.69880200
 N                  1.16580500    0.26995000   -0.47853200
 C                  0.06993600   -0.27780800   -1.28465900
 C                 -1.30111300   -0.48845800   -0.61067300
 O                 -1.94546000   -1.47806800   -0.93874200
 N                 -1.78083200    0.42964600    0.28992100
 C                 -1.21314500    1.73630500    0.57099500
 C                 -3.01500900    0.11800600    0.99902800
 H                  3.22248900   -0.94264800    1.89531100
 H                  2.88707100    0.78811400    1.65231100
 H                  3.83947000   -0.10210000    0.45626400
 H                 -0.07301900    0.38489000   -2.14511500
 H                  0.32578200   -1.27082100   -1.65986200
 H                 -0.54869500    2.06230300   -0.22606400
 H                 -2.02657300    2.46819900    0.64169500
 H                 -0.65653700    1.75492800    1.51742500
 H                 -3.82799700    0.78691300    0.68716500
 H                 -3.29338100   -0.90924700    0.77238400
 H                 -2.86735200    0.23378800    2.07947700
 C                  1.93305500    1.36416900   -1.06504000
 H                  2.59866100    1.80843900   -0.32549600
 H                  2.53684800    1.04138800   -1.92546900
 H                  1.25478700    2.15052400   -1.40964300

D 2 4 5 6 F
D 4 5 6 8 S 37 10.000000

