%nprocshared=8
%mem=14GB
# opt=modredundant b3lyp/6-31g(d,p)

QM dihedral opt

0 1
 C                  2.78923800   -1.38328800   -0.32504400
 C                  1.46652900   -0.64440200   -0.48585600
 O                  0.56453200   -1.11950100   -1.16638300
 N                  1.30899100    0.54973000    0.18497900
 C                  0.12734500    1.38088800   -0.07819500
 C                 -1.21856900    0.70989000   -0.41727400
 O                 -1.80164400    1.07698900   -1.42996700
 N                 -1.79742000   -0.12744500    0.50469600
 C                 -1.11908700   -0.67804300    1.66308200
 C                 -3.03235200   -0.80234000    0.12882100
 H                  2.69364700   -2.32684500   -0.86093200
 H                  3.02319700   -1.59053700    0.72410300
 H                  3.62468900   -0.81809200   -0.75084200
 H                 -0.02190500    2.01419800    0.80565200
 H                  0.31246600    2.04371200   -0.93019600
 H                 -0.30779200   -0.02934000    1.98983400
 H                 -1.83378100   -0.77264400    2.48823600
 H                 -0.70164700   -1.67293700    1.45394500
 H                 -3.73115000   -0.79768000    0.97293000
 H                 -3.46978200   -0.27503100   -0.71656400
 H                 -2.83821500   -1.84421100   -0.15990700
 C                  2.40315000    1.26379900    0.83046900
 H                  3.22402500    0.59009200    1.06788400
 H                  2.79127700    2.07290200    0.19540200
 H                  2.05335100    1.71147800    1.76751100

D 2 4 5 6 F
D 4 5 6 8 S 37 10.000000

