%nprocshared=8
%mem=14GB
# opt=modredundant b3lyp/6-31g(d,p)

QM dihedral opt

0 1
 C                  3.22479400   -0.87694000   -0.38731000
 C                  1.86189600   -0.70023700    0.25908700
 O                  1.19186700   -1.66408900    0.61437000
 N                  1.41708700    0.59093600    0.48371000
 C                  0.01498200    0.68935100    0.85118000
 C                 -0.90456800    0.26662900   -0.31781600
 O                 -0.45799000    0.20330800   -1.45910800
 N                 -2.22116300    0.02391000   -0.02614200
 C                 -2.78187300    0.00531700    1.31608300
 C                 -3.09577900   -0.46243100   -1.08554200
 H                  3.45779600   -1.94111000   -0.37301800
 H                  4.00921100   -0.32821300    0.14354000
 H                  3.21239400   -0.52889700   -1.42531000
 H                 -0.15468400    0.04402400    1.71427400
 H                 -0.20396000    1.72233600    1.14245100
 H                 -2.21737000    0.64376300    1.99454700
 H                 -3.80681400    0.38930800    1.28073500
 H                 -2.81294500   -1.01017300    1.73481300
 H                 -4.00340300    0.15005000   -1.13966700
 H                 -2.55613900   -0.40479600   -2.02884900
 H                 -3.38963300   -1.50373300   -0.90047600
 C                  1.98429000    1.74383500   -0.21123900
 H                  3.06894400    1.65615000   -0.27468500
 H                  1.56962800    1.85026300   -1.22047400
 H                  1.76204300    2.65021000    0.36037900

D 2 4 5 6 F
D 4 5 6 8 S 37 10.000000

