%nprocshared=8
%mem=14GB
# opt=modredundant b3lyp/6-31g(d,p)

QM dihedral opt

0 1
 C                  2.82726500   -1.26172200   -0.67051200
 C                  1.53264500   -0.83754000    0.00017400
 O                  0.57675700   -1.60805300    0.07664600
 N                  1.46876200    0.41491000    0.56790700
 C                  0.12356400    0.88027000    0.92282300
 C                 -0.88119800    0.63925200   -0.21967000
 O                 -0.59166900    1.04810300   -1.34249500
 N                 -2.09315500    0.08916000    0.08952500
 C                 -2.31802800   -0.68839400    1.30907400
 C                 -3.04718900   -0.09566000   -0.99929800
 H                  2.71476700   -2.30462300   -0.96454100
 H                  3.68871400   -1.16737200   -0.00189200
 H                  3.02530600   -0.65937600   -1.56314800
 H                 -0.18453100    0.41730700    1.86220800
 H                  0.16959200    1.96001600    1.08195000
 H                 -2.37124300   -0.05144400    2.19906200
 H                 -3.27786300   -1.19974600    1.21745200
 H                 -1.53396400   -1.43990300    1.43902300
 H                 -4.06119400    0.10848300   -0.64131600
 H                 -2.79268100    0.59338200   -1.80262300
 H                 -3.01010300   -1.11981800   -1.39313800
 C                  2.43744800    1.46298800    0.24941500
 H                  3.43573400    1.04185700    0.13429500
 H                  2.16321700    1.99707300   -0.66901600
 H                  2.47725200    2.18010200    1.07441700

D 2 4 5 6 F
D 4 5 6 8 S 37 10.000000

