%nprocshared=8
%mem=14GB
# opt=modredundant b3lyp/6-31g(d,p)

QM dihedral opt

0 1
 C                  3.33286700   -0.15706400    0.77213700
 C                  2.14927600   -0.39345300   -0.15234600
 O                  2.15334800   -1.31506600   -0.96483400
 N                  1.05466700    0.43564500   -0.00052800
 C                  0.03836500    0.40315100   -1.05872800
 C                 -1.37808800    0.55835000   -0.49408800
 O                 -1.95778000    1.63918100   -0.59380100
 N                 -1.93888200   -0.52695700    0.12639300
 C                 -1.29233900   -1.81584700    0.32791400
 C                 -3.26948300   -0.39696000    0.70357900
 H                  4.09006100   -0.90283000    0.53355100
 H                  3.04783000   -0.25979100    1.82424300
 H                  3.75701700    0.84364500    0.64138000
 H                  0.17059900    1.25553400   -1.73519500
 H                  0.18588200   -0.51395000   -1.62667200
 H                 -0.31849600   -1.86537400   -0.15461900
 H                 -1.15280800   -2.01041400    1.39960500
 H                 -1.92145500   -2.61760400   -0.07863900
 H                 -3.23529300   -0.53684700    1.79177500
 H                 -3.64836900    0.59772800    0.47630600
 H                 -3.94215700   -1.15373800    0.28214400
 C                  1.12193400    1.67132800    0.78075500
 H                  1.55128700    1.48492500    1.76633700
 H                  1.71429700    2.44862100    0.27760100
 H                  0.11137400    2.05932000    0.91486700

D 2 4 5 6 F
D 4 5 6 8 S 37 10.000000

