%nprocshared=8
%mem=14GB
# opt=modredundant b3lyp/6-31g(d,p)

QM dihedral opt

0 1
 C                  3.21225100    0.60788000   -0.82264800
 C                  1.90259800    0.69578000   -0.05320700
 O                  1.41990300    1.79235800    0.23629800
 N                  1.29708200   -0.48000600    0.30444500
 C                  0.06614300   -0.41938500    1.09555600
 C                 -1.17720700   -0.69820100    0.23241700
 O                 -1.36964000   -1.85392700   -0.15464100
 N                 -2.02486000    0.32874400   -0.07062300
 C                 -1.83725700    1.72934200    0.29951500
 C                 -3.24755200    0.02615600   -0.80536500
 H                  3.60483900    1.62026800   -0.90973000
 H                  3.05612900    0.20397000   -1.82871300
 H                  3.94833300   -0.02554500   -0.31874800
 H                  0.09314500   -1.22428900    1.83648900
 H                  0.04684100    0.53619600    1.61366000
 H                 -2.19903600    2.35549800   -0.52250500
 H                 -2.41440200    1.99022600    1.19730200
 H                 -0.78311300    1.96287400    0.44736200
 H                 -3.24757300    0.53394800   -1.77757500
 H                 -3.30439800   -1.04966800   -0.95917300
 H                 -4.12284900    0.36705500   -0.23924200
 C                  1.79391700   -1.81377600   -0.02695300
 H                  2.44691300   -1.78013900   -0.89813600
 H                  2.35049800   -2.25360400    0.81242900
 H                  0.93965000   -2.45218600   -0.25931600

D 2 4 5 6 F
D 4 5 6 8 S 37 10.000000

