%nprocshared=8
%mem=14GB
# opt=modredundant b3lyp/6-31g(d,p)

QM dihedral opt

0 1
 C                  3.69543300    0.05640200   -0.36793200
 C                  2.31024900   -0.55807900   -0.23101500
 O                  2.09773000   -1.70978000   -0.60237100
 N                  1.31250700    0.23286100    0.29955500
 C                  0.02184500   -0.38994100    0.52298000
 C                 -1.13578500    0.37882500   -0.13792700
 O                 -0.94297300    1.42708700   -0.74667500
 N                 -2.39104900   -0.15809100    0.01169300
 C                 -2.69707900   -1.43403900    0.63788900
 C                 -3.52701200    0.52918900   -0.58690900
 H                  4.33877900   -0.69758700   -0.81967000
 H                  4.11255600    0.34812000    0.60128300
 H                  3.68147800    0.94442500   -1.00780200
 H                  0.09788600   -1.40152000    0.11790700
 H                 -0.17367900   -0.47400400    1.60332400
 H                 -1.81105300   -1.89544100    1.06786000
 H                 -3.43410400   -1.29826400    1.43975200
 H                 -3.12225900   -2.13282100   -0.09476100
 H                 -4.29492500    0.72622700    0.17117300
 H                 -3.17793100    1.46914100   -1.00993700
 H                 -3.97562300   -0.08189400   -1.38063000
 C                  1.54400900    1.52394600    0.93638100
 H                  2.44273000    1.99272200    0.53953100
 H                  0.70105800    2.17993200    0.71853800
 H                  1.65688000    1.42129800    2.02626100

D 2 4 5 6 F
D 4 5 6 8 S 37 10.000000

