%nprocshared=8
%mem=14GB
# opt=modredundant b3lyp/6-31g(d,p)

QM dihedral opt

0 1
 C                  3.59647800    0.01730600   -0.50889200
 C                  2.22036000   -0.57775800   -0.24860800
 O                  1.92398100   -1.68651600   -0.68657200
 N                  1.33283200    0.16468300    0.49895300
 C                  0.00839000   -0.38338000    0.70303600
 C                 -1.06401300    0.34590600   -0.13146800
 O                 -0.76537500    1.29063800   -0.85539900
 N                 -2.35614300   -0.09995700   -0.00457500
 C                 -2.77433300   -1.26880800    0.75174600
 C                 -3.40578000    0.55207200   -0.77536700
 H                  4.14665900   -0.70044400   -1.11600500
 H                  4.14903400    0.19302700    0.41999600
 H                  3.53166700    0.96769300   -1.04754800
 H                  0.05814200   -1.43644500    0.41734000
 H                 -0.25238800   -0.32176800    1.76868000
 H                 -1.94994700   -1.70001800    1.31536800
 H                 -3.56790600   -0.99926500    1.46025000
 H                 -3.17027600   -2.04433700    0.08243800
 H                 -4.21578400    0.88052800   -0.11276700
 H                 -2.97555200    1.41213900   -1.28488200
 H                 -3.82683500   -0.13691100   -1.51887400
 C                  1.58737100    1.49531600    1.03363900
 H                  2.64147200    1.75081900    0.94565000
 H                  0.99113700    2.24178900    0.50197500
 H                  1.32405400    1.52320300    2.09898900

D 2 4 5 6 F
D 4 5 6 8 S 37 10.000000

