%nprocshared=8
%mem=14GB
# opt=modredundant b3lyp/6-31g(d,p)

QM dihedral opt

0 1
 C                  3.78278200    0.14520300   -0.08786300
 C                  2.41363500   -0.51207400   -0.17171500
 O                  2.30730700   -1.70407600   -0.44663600
 N                  1.30348400    0.29206500    0.02913800
 C                  0.04502000   -0.43793400    0.14281700
 C                 -1.20157300    0.38712300   -0.19888500
 O                 -1.13213300    1.52264800   -0.66217000
 N                 -2.40976900   -0.22352700    0.03835500
 C                 -2.59970400   -1.59252900    0.49184400
 C                 -3.63529300    0.51410200   -0.23650800
 H                  4.51746200   -0.59943200   -0.39217100
 H                  4.01145400    0.47265700    0.93175600
 H                  3.85831000    1.01813000   -0.74325900
 H                  0.12410900   -1.30148900   -0.52145700
 H                 -0.06108500   -0.84407100    1.16148200
 H                 -1.65932600   -2.13594300    0.54691800
 H                 -3.07263600   -1.61606100    1.48281600
 H                 -3.25529300   -2.12916300   -0.20535200
 H                 -4.26794200    0.54654400    0.65906300
 H                 -3.37034600    1.52590300   -0.53654000
 H                 -4.20400600    0.03349900   -1.04259600
 C                  1.42270600    1.55384100    0.76445100
 H                  2.30010100    2.10373000    0.42607900
 H                  0.54557000    2.16162200    0.55678400
 H                  1.51079400    1.38935100    1.84961300

D 2 4 5 6 F
D 4 5 6 8 S 37 10.000000

