%nprocshared=8
%mem=14GB
# opt=modredundant b3lyp/6-31g(d,p)

QM dihedral opt

0 1
 C                  2.79287300   -1.41883200   -0.43377700
 C                  1.48568800   -0.82823800    0.06910100
 O                  0.48375900   -1.53053700    0.19364400
 N                  1.46469300    0.49863900    0.42433900
 C                  0.15411200    1.13040000    0.62310600
 C                 -0.90849300    0.61591700   -0.36645300
 O                 -0.69691800    0.76577100   -1.56642400
 N                 -2.09648600    0.14902400    0.13201200
 C                 -2.22415600   -0.39009500    1.48577400
 C                 -3.06560100   -0.33853300   -0.84596400
 H                  2.60843000   -2.46973000   -0.65319200
 H                  3.58870400   -1.34702000    0.31484300
 H                  3.13826800   -0.91729400   -1.34318900
 H                 -0.14937300    1.02985900    1.66850600
 H                  0.26306700    2.19629300    0.40956000
 H                 -2.02844000    0.37170900    2.24544200
 H                 -3.25376600   -0.72531900    1.62548400
 H                 -1.54622600   -1.23630800    1.64003600
 H                 -4.07922000   -0.16862700   -0.47104900
 H                 -2.91977700    0.20087900   -1.78001300
 H                 -2.93279600   -1.41113700   -1.04096900
 C                  2.57262700    1.41134400    0.16121400
 H                  3.52482600    0.88405200    0.20000100
 H                  2.47564100    1.89824900   -0.81838400
 H                  2.59618800    2.18710200    0.93270300

D 2 4 5 6 F
D 4 5 6 8 S 37 10.000000

