%nprocshared=8
%mem=14GB
# opt=modredundant b3lyp/6-31g(d,p)

QM dihedral opt

0 1
 C                  2.81433900   -1.42900300   -0.44380200
 C                  1.47411100   -0.81311700   -0.06746000
 O                  0.44917600   -1.49079600   -0.08640000
 N                  1.45662000    0.50406100    0.31705500
 C                  0.18215300    1.21355500    0.47640500
 C                 -0.97115100    0.66013200   -0.38105100
 O                 -0.93937000    0.86617400   -1.58924700
 N                 -2.06945900    0.13086600    0.25375500
 C                 -1.99608400   -0.56725600    1.53095400
 C                 -3.15204500   -0.32172200   -0.61467400
 H                  2.61407800   -2.44455400   -0.78295300
 H                  3.49566800   -1.47328000    0.41257600
 H                  3.31258400   -0.87354900   -1.24410900
 H                 -0.07242000    1.29360100    1.53892600
 H                  0.32715800    2.23010500    0.09940100
 H                 -1.26963000   -0.10522900    2.19784800
 H                 -2.97570300   -0.52500600    2.01754400
 H                 -1.70366700   -1.61499400    1.39099800
 H                 -4.09399600   -0.29139300   -0.05889700
 H                 -3.20944500    0.33255200   -1.48268700
 H                 -2.98000900   -1.34820500   -0.96628200
 C                  2.63620000    1.35813200    0.35738800
 H                  3.54535200    0.76419900    0.43140800
 H                  2.70477700    1.99956000   -0.53179500
 H                  2.59154000    2.00435500    1.24096700

D 2 4 5 6 F
D 4 5 6 8 S 37 10.000000

