%nprocshared=8
%mem=14GB
# opt=modredundant b3lyp/6-31g(d,p)

QM dihedral opt

0 1
 C                  3.44160800   -0.15454000   -0.66929100
 C                  2.07222000   -0.64006700   -0.22182000
 O                  1.62717800   -1.71985500   -0.59845500
 N                  1.36483700    0.16311600    0.64984800
 C                 -0.00100700   -0.23362800    0.92268500
 C                 -0.98399300    0.33798000   -0.12275600
 O                 -0.58792200    1.10430600   -0.99529400
 N                 -2.30084900   -0.02868600   -0.00760800
 C                 -2.81582900   -1.00756100    0.93589300
 C                 -3.25351100    0.44541300   -1.00245500
 H                  3.87141000   -0.93142900   -1.30048900
 H                  4.11012800    0.02866700    0.17821600
 H                  3.36586000    0.77365900   -1.24465100
 H                 -0.03460200   -1.32441900    0.90595100
 H                 -0.28112400    0.11215700    1.92508900
 H                 -2.09675800   -1.22197000    1.72406900
 H                 -3.72735500   -0.62262700    1.40849600
 H                 -3.06858800   -1.95179700    0.43417000
 H                 -4.11576300    0.91064400   -0.51009400
 H                 -2.75348500    1.17445700   -1.63718100
 H                 -3.61571200   -0.38529600   -1.62200500
 C                  1.72768100    1.54077300    0.96054600
 H                  2.81104200    1.65875600    0.97667700
 H                  1.29419300    2.24174600    0.23939300
 H                  1.35577600    1.79061200    1.95985200

D 2 4 5 6 F
D 4 5 6 8 S 37 10.000000

