%nprocshared=8
%mem=14GB
# opt=modredundant b3lyp/6-31g(d,p)

QM dihedral opt

0 1
 C                  3.29621800   -0.24185400    0.77239600
 C                  2.08790200   -0.44667100   -0.12736600
 O                  1.99760700   -1.43705500   -0.85146500
 N                  1.08856800    0.49916400   -0.06106000
 C                  0.03096900    0.45690600   -1.07567600
 C                 -1.36419100    0.58930900   -0.45008000
 O                 -1.92432400    1.68609500   -0.45650300
 N                 -1.92616900   -0.52302000    0.11634300
 C                 -1.29685800   -1.83160500    0.22942400
 C                 -3.23820200   -0.40615100    0.73774900
 H                  3.99007000   -1.05956900    0.58178800
 H                  3.01320600   -0.25362000    1.83018400
 H                  3.79592900    0.71177400    0.57493500
 H                  0.12496300    1.31889300   -1.74522800
 H                  0.16943600   -0.45434500   -1.65477700
 H                 -0.31467500   -1.85955100   -0.23879900
 H                 -1.17742300   -2.10200900    1.28692700
 H                 -1.92938000   -2.59532800   -0.24067600
 H                 -3.17336900   -0.59123100    1.81781800
 H                 -3.61550200    0.59986100    0.56416800
 H                 -3.92813900   -1.14075900    0.30542600
 C                  1.23907400    1.76437100    0.65688600
 H                  1.65928400    1.60195500    1.65066000
 H                  1.87923200    2.47372600    0.11375500
 H                  0.25384000    2.21904700    0.77057800

D 2 4 5 6 F
D 4 5 6 8 S 37 10.000000

