%nprocshared=8
%mem=14GB
# opt=modredundant b3lyp/6-31g(d,p)

QM dihedral opt

0 1
 C                  2.90140000   -0.36827000    1.20584300
 C                  1.62596900   -0.65275100    0.42507400
 O                  0.97694900   -1.67322600    0.61619100
 N                  1.19970900    0.29063900   -0.49060000
 C                  0.07866600   -0.10576200   -1.34776000
 C                 -1.27779700   -0.40175700   -0.67784900
 O                 -1.92690700   -1.35265900   -1.09608300
 N                 -1.74686100    0.43005100    0.30867100
 C                 -1.14970600    1.68623400    0.72430100
 C                 -2.96870100    0.05384200    1.00634700
 H                  3.02132900   -1.17296300    1.93030200
 H                  2.85530200    0.58796700    1.73704500
 H                  3.78024300   -0.34644900    0.55277900
 H                 -0.06861400    0.69003100   -2.08614200
 H                  0.30680800   -1.02831300   -1.88770200
 H                 -0.47487100    2.07698700   -0.03479500
 H                 -1.94535000    2.42591200    0.87347500
 H                 -0.59398600    1.59151200    1.66707700
 H                 -3.77015500    0.77834700    0.81119200
 H                 -3.27904400   -0.92672800    0.65082900
 H                 -2.79158900    0.01709300    2.08822900
 C                  2.05188800    1.36739000   -0.97985800
 H                  2.76278100    1.67596200   -0.21432600
 H                  2.61538300    1.07899600   -1.87876100
 H                  1.44117800    2.24033400   -1.23314600

D 2 4 5 6 F
D 4 5 6 8 S 37 10.000000

