%nprocshared=8
%mem=14GB
# opt=modredundant b3lyp/6-31g(d,p)

QM dihedral opt

0 1
 C                  3.34898100   -0.44796300   -0.66412800
 C                  1.97985900   -0.70393000   -0.05670500
 O                  1.43367700   -1.79800900   -0.15283900
 N                  1.38853100    0.32803900    0.64776900
 C                  0.00271900    0.11389800    1.01579700
 C                 -0.94242200    0.31572700   -0.19073000
 O                 -0.51211300    0.77723600   -1.24309000
 N                 -2.26293600   -0.00732400   -0.01401400
 C                 -2.81981500   -0.62724500    1.17721800
 C                 -3.17581000    0.11611400   -1.14251500
 H                  3.69676300   -1.38769200   -1.09167700
 H                  4.07269100   -0.10168300    0.08073000
 H                  3.29360600    0.30588600   -1.45610600
 H                 -0.08856000   -0.90600300    1.39276300
 H                 -0.26379700    0.80996800    1.81929000
 H                 -2.14372100   -0.54489400    2.02615000
 H                 -3.75783100   -0.12818800    1.44755000
 H                 -3.03824100   -1.69117500    1.01126200
 H                 -4.04166900    0.72990600   -0.86639400
 H                 -2.64121700    0.58379700   -1.96704600
 H                 -3.53815000   -0.87072600   -1.45815900
 C                  1.83227900    1.71477200    0.55364000
 H                  2.91953700    1.76632900    0.49640500
 H                  1.39806500    2.21784500   -0.31765800
 H                  1.52609600    2.24956900    1.45856700

D 2 4 5 6 F
D 4 5 6 8 S 37 10.000000

