%mem=1GB
%nprocshared=6
%chk=HCl_PBE.chk
# opt freq pbepbe/aug-cc-pvtz

Title Card Required

0 1
 Cl                -0.42954025   -0.02232143    0.01124791
 H                 -1.71954025   -0.02232143    0.01124791

