%mem=1GB
%nprocshared=6
%chk=HCl_PBE_chelpg.chk
# Pop=(ChelpG,ESPDipole) pbepbe/aug-cc-pvtz

Title Card Required

0 1
 Cl                 0.00000000    0.00000000    0.07173400
 H                  0.00000000    0.00000000   -1.21947300

