%mem=1GB
%nprocshared=6
%chk=HCl_B3LYP_chelpg.chk
# b3lyp/aug-cc-pvtz Pop=(ChelpG,ESPDipole)

Title Card Required

0 1
 Cl                 0.00000000    0.00000000    0.07130500
 H                  0.00000000    0.00000000   -1.21218800

