%mem=1GB
%nprocshared=6
%chk=HCl_SVWN_chelpg.chk
# Pop=(ChelpG,ESPDipole) lsda/aug-cc-pvtz

Title Card Required

0 1
 Cl                 0.00000000    0.00000000    0.07178300
 H                  0.00000000    0.00000000   -1.22030800

