%mem=1GB
%nprocshared=6
%chk=HCl_RHF_chelpg.chk
# Pop=(ChelpG,ESPDipole) rhf/aug-cc-pvtz

Title Card Required

0 1
 Cl                 0.00000000    0.00000000    0.07041400
 H                  0.00000000    0.00000000   -1.19703000

