%nprocshared=8
%mem=14GB
# opt=modredundant b3lyp/6-31g(d,p)

QM dihedral opt

0 1
 C                  1.16964400    2.87909100    0.29138500
 C                  0.16191100    1.91786400   -0.31624200
 O                 -0.87577500    2.32275200   -0.82917800
 N                  0.46391900    0.56901100   -0.30703000
 C                 -0.62060600   -0.30572200   -0.71673100
 C                 -1.72692300   -0.35518700    0.36321300
 O                 -1.49566900    0.05248400    1.49639800
 N                 -2.92805100   -0.91092600    0.00755800
 C                 -3.27971000   -1.34030600   -1.33679900
 C                 -4.01891000   -0.90084700    0.97358500
 H                  0.89999100    3.88268200   -0.03655700
 H                  2.20020500    2.66271500   -0.00358900
 H                  1.11515100    2.84549900    1.38490800
 H                 -1.02487500    0.06790200   -1.65822900
 H                 -0.22387200   -1.31226400   -0.88643200
 H                 -2.39527300   -1.58002200   -1.92538600
 H                 -3.89062300   -2.24758500   -1.27659800
 H                 -3.85906600   -0.57547900   -1.87251900
 H                 -4.43271800   -1.90941600    1.09067500
 H                 -3.62879700   -0.55034200    1.92716200
 H                 -4.82394800   -0.23156800    0.64361600
 C                  1.52134800   -0.02200100    0.51223000
 H                  1.90462600    0.70729000    1.22605200
 H                  1.10214500   -0.83805900    1.10772700
 C                  2.67763500   -0.54385800   -0.34061300
 H                  3.13603400    0.28659600   -0.90434800
 H                  2.30899100   -1.27051100   -1.08585600
 O                  3.61270500   -1.14598200    0.52994000
 C                  4.74367000   -1.65822200   -0.14271600
 H                  5.39823600   -2.09998800    0.61209400
 H                  4.46798000   -2.43519100   -0.87314800
 H                  5.29629000   -0.86776100   -0.67441700

D 2 4 5 6 F
D 4 5 6 8 S 36 10.000000

