%nprocshared=8
%mem=14GB
# opt=modredundant b3lyp/6-31g(d,p)

QM dihedral opt

0 1
 C                  1.35593700    2.85595700    0.39173100
 C                  0.27974200    2.00567000   -0.26375500
 O                 -0.69944400    2.51912400   -0.79485100
 N                  0.45201400    0.63546700   -0.26254700
 C                 -0.67006900   -0.14356900   -0.74990400
 C                 -1.74107600   -0.32440900    0.35044500
 O                 -1.49852400    0.00391300    1.50675200
 N                 -2.93125800   -0.89434700   -0.02183900
 C                 -3.30704500   -1.22723200   -1.38627600
 C                 -3.98730700   -1.03071300    0.97243900
 H                  1.18379400    3.88811800    0.08797000
 H                  2.36933500    2.55659600    0.11007500
 H                  1.27693500    2.79715000    1.48270800
 H                 -1.09431400    0.38011900   -1.60746000
 H                 -0.31248900   -1.12439400   -1.08274900
 H                 -2.43885800   -1.27618100   -2.04113100
 H                 -3.79298400   -2.20969800   -1.40364800
 H                 -4.01215700   -0.49355400   -1.80089700
 H                 -4.35087900   -2.06479400    1.00082200
 H                 -3.58148600   -0.75638500    1.94429700
 H                 -4.83310600   -0.37267400    0.73448600
 C                  1.46606800   -0.06400100    0.52305600
 H                  1.87918200    0.59588000    1.28623400
 H                  0.99330400   -0.89031900    1.06037700
 C                  2.60314500   -0.59549900   -0.35056200
 H                  3.11192600    0.24017100   -0.86091500
 H                  2.20558500   -1.25694800   -1.14023400
 O                  3.49530200   -1.29582700    0.49102300
 C                  4.60676500   -1.82561900   -0.20029600
 H                  5.23085100   -2.34027800    0.53385100
 H                  4.30138700   -2.54655700   -0.97502100
 H                  5.20305100   -1.03528600   -0.68273200

D 2 4 5 6 F
D 4 5 6 8 S 36 10.000000

