%nprocshared=8
%mem=14GB
# opt=modredundant b3lyp/6-31g(d,p)

QM dihedral opt

0 1
 C                  0.65939900    2.71940600   -0.94993200
 C                 -0.27889000    1.76121400   -0.22772900
 O                 -1.49272100    1.92364900   -0.26610500
 N                  0.27924800    0.68997400    0.44014000
 C                 -0.59466300   -0.14997600    1.27428000
 C                 -2.02616600   -0.48882600    0.81010500
 O                 -2.92520100   -0.34952300    1.63123100
 N                 -2.23561200   -1.08160400   -0.41037900
 C                 -1.24266600   -1.21640200   -1.45882300
 C                 -3.61225600   -1.31346700   -0.82749100
 H                  0.04501500    3.33264300   -1.60849600
 H                  1.42531800    2.20709500   -1.53904200
 H                  1.16734600    3.38111400   -0.23977000
 H                 -0.06792800   -1.09697000    1.44128300
 H                 -0.74865800    0.31964100    2.25081300
 H                 -0.23595800   -1.22520600   -1.04678700
 H                 -1.40364600   -2.16267100   -1.98757000
 H                 -1.30987900   -0.39907600   -2.19074100
 H                 -3.70977400   -2.31910200   -1.25245200
 H                 -4.25687100   -1.21651700    0.04362100
 H                 -3.91937300   -0.58166100   -1.58668100
 C                  1.70894300    0.58641100    0.73789400
 H                  2.20769800    1.53647500    0.54563000
 H                  1.84100400    0.37825400    1.80593400
 C                  2.41469200   -0.50705300   -0.06652000
 H                  2.33608800   -0.29319800   -1.14623300
 H                  1.93549900   -1.48638500    0.10614000
 O                  3.76153800   -0.52747300    0.35276600
 C                  4.53463300   -1.50845600   -0.30975200
 H                  5.54962600   -1.44282800    0.08784500
 H                  4.14625900   -2.52284500   -0.13023200
 H                  4.56570000   -1.33768100   -1.39692700

D 2 4 5 6 F
D 4 5 6 8 S 36 10.000000

