%nprocshared=8
%mem=14GB
# opt=modredundant b3lyp/6-31g(d,p)

QM dihedral opt

0 1
 C                  0.69392800    2.82312700   -0.05956300
 C                 -0.11268100    1.55906400   -0.30866200
 O                 -1.24297100    1.62037800   -0.78906800
 N                  0.45942400    0.34265200   -0.02005000
 C                 -0.41823600   -0.83327000   -0.04913800
 C                 -1.79277400   -0.55013300    0.58915100
 O                 -1.82067500   -0.14710600    1.74785900
 N                 -2.91809100   -0.89452400   -0.11249600
 C                 -2.93113300   -1.01419100   -1.57048300
 C                 -4.20083000   -0.60864200    0.52441900
 H                  0.11955300    3.65481300   -0.46593500
 H                  1.67685400    2.79627200   -0.53929100
 H                  0.84449500    2.98988400    1.01216200
 H                 -0.49781000   -1.21681900   -1.06924200
 H                  0.04552700   -1.61054800    0.56304400
 H                 -2.32572400   -1.85821900   -1.91480000
 H                 -3.95767600   -1.20446400   -1.88919700
 H                 -2.57542100   -0.09377700   -2.04492300
 H                 -4.93341000   -1.36548800    0.22838000
 H                 -4.06457900   -0.62646500    1.60413200
 H                 -4.57748800    0.38257400    0.23867200
 C                  1.75786200    0.18444300    0.63071600
 H                  2.14114600    1.15252700    0.95091100
 H                  1.64469400   -0.42457200    1.53423200
 C                  2.78863400   -0.46561000   -0.29386200
 H                  2.92427800    0.15442500   -1.19652200
 H                  2.43572000   -1.45533400   -0.63168500
 O                  3.99288200   -0.58199100    0.43354000
 C                  5.03345100   -1.18113500   -0.31099000
 H                  5.91240600   -1.22309800    0.33609100
 H                  4.77375200   -2.20400600   -0.62553000
 H                  5.28114200   -0.59676700   -1.21084900

D 2 4 5 6 F
D 4 5 6 8 S 36 10.000000

