%nprocshared=8
%mem=14GB
# opt=modredundant b3lyp/6-31g(d,p)

QM dihedral opt

0 1
 C                  1.25894400    2.88128100   -0.67669500
 C                  0.03646000    2.16440700   -0.12360000
 O                 -1.08974100    2.62918300   -0.30251500
 N                  0.24033100    1.00745700    0.59307500
 C                 -0.92202900    0.39149700    1.24177200
 C                 -1.37513700   -0.91885800    0.57212000
 O                 -0.71494400   -1.94009300    0.77968800
 N                 -2.49427500   -0.91613200   -0.21065100
 C                 -3.31015900    0.24957700   -0.53924700
 C                 -2.96673000   -2.18517900   -0.75172500
 H                  0.89917700    3.68828200   -1.31378400
 H                  1.91063000    2.22259200   -1.25657300
 H                  1.85817700    3.31314800    0.13229700
 H                 -0.63338600    0.09852400    2.25554100
 H                 -1.70156500    1.14719700    1.30082200
 H                 -2.74999500    1.17695900   -0.42383700
 H                 -3.61512100    0.17689500   -1.58873100
 H                 -4.22239800    0.28328900    0.07202200
 H                 -2.95368300   -2.16309600   -1.84822600
 H                 -2.31407600   -2.97996000   -0.39615700
 H                 -3.99607700   -2.37618900   -0.42463300
 C                  1.56692700    0.43623600    0.84218100
 H                  2.30984200    1.23452300    0.91089100
 H                  1.54508000   -0.06583500    1.81260200
 C                  2.03067400   -0.56856000   -0.21657700
 H                  1.95018900   -0.12710500   -1.22553900
 H                  1.39475400   -1.46212300   -0.18543100
 O                  3.37815300   -0.87797900    0.09032600
 C                  3.90341300   -1.90772100   -0.72120300
 H                  4.93373700   -2.07987400   -0.40072600
 H                  3.33420700   -2.84330900   -0.61278100
 H                  3.90618800   -1.62815400   -1.78687800

D 2 4 5 6 F
D 4 5 6 8 S 36 10.000000

