%nprocshared=8
%mem=14GB
# opt=modredundant b3lyp/6-31g(d,p)

QM dihedral opt

0 1
 C                  0.63042600    2.75969500   -0.98963700
 C                 -0.29412300    1.82505000   -0.22152800
 O                 -1.50361600    2.01610300   -0.19415300
 N                  0.26483200    0.73043400    0.41129400
 C                 -0.61725100   -0.05461300    1.28787500
 C                 -2.00902400   -0.51199700    0.80335200
 O                 -2.91868100   -0.44636300    1.62311800
 N                 -2.18005800   -1.09266200   -0.42794500
 C                 -1.17292900   -1.21337400   -1.46438900
 C                 -3.53577600   -1.42922200   -0.84302800
 H                  0.00133300    3.38071300   -1.62678700
 H                  1.36063000    2.22720400   -1.60560100
 H                  1.18039400    3.41670100   -0.30692800
 H                 -0.06309300   -0.95424000    1.57866000
 H                 -0.84336700    0.50456900    2.20073000
 H                 -0.17159600   -1.15952000   -1.04613100
 H                 -1.28546200   -2.18257000   -1.96403100
 H                 -1.27366300   -0.42500200   -2.22383700
 H                 -3.57775400   -2.46848600   -1.19056100
 H                 -4.19870600   -1.30045600    0.00988500
 H                 -3.86362300   -0.77520600   -1.66173500
 C                  1.69806600    0.62053000    0.69532100
 H                  2.20669400    1.54933600    0.43758300
 H                  1.84664500    0.47450300    1.77184500
 C                  2.37827700   -0.52704000   -0.05317100
 H                  2.28836400   -0.37448100   -1.14251000
 H                  1.89046500   -1.48884600    0.18222300
 O                  3.73021400   -0.53967600    0.34988200
 C                  4.48210000   -1.56965000   -0.26070400
 H                  5.50308100   -1.49309600    0.11919800
 H                  4.08365300   -2.56586800   -0.01412400
 H                  4.50064800   -1.46644100   -1.35664300

D 2 4 5 6 F
D 4 5 6 8 S 36 10.000000

