%nprocshared=8
%mem=14GB
# opt=modredundant b3lyp/6-31g(d,p)

QM dihedral opt

0 1
 C                  1.53537500    2.82777800    0.46833300
 C                  0.40085600    2.07981800   -0.21422800
 O                 -0.51381200    2.68444000   -0.76505000
 N                  0.44408100    0.70059700   -0.20127500
 C                 -0.70739000    0.00827600   -0.74570700
 C                 -1.75172400   -0.29697500    0.35152300
 O                 -1.49993200   -0.06421800    1.52899000
 N                 -2.93518900   -0.86078900   -0.05199400
 C                 -3.33049100   -1.08733900   -1.43221300
 C                 -3.95866300   -1.14104400    0.94589100
 H                  1.44769500    3.87649900    0.18635400
 H                  2.52410300    2.45616600    0.18488600
 H                  1.44614200    2.75046500    1.55733100
 H                 -1.14069400    0.65220600   -1.51248300
 H                 -0.38386600   -0.92739200   -1.21680100
 H                 -2.49577900   -0.95153300   -2.11672500
 H                 -3.70070600   -2.11297200   -1.55157000
 H                 -4.13471900   -0.40151900   -1.73172200
 H                 -4.27274900   -2.18998100    0.88382100
 H                 -3.54307100   -0.93923400    1.93129000
 H                 -4.84004800   -0.50656400    0.78661800
 C                  1.42099800   -0.08980800    0.54262300
 H                  1.87220700    0.50949800    1.33386900
 H                  0.90257200   -0.91073500    1.04358400
 C                  2.52411400   -0.64622700   -0.35979700
 H                  3.08238400    0.17890900   -0.83425400
 H                  2.08771700   -1.24719000   -1.17677900
 O                  3.37374000   -1.43581100    0.44609700
 C                  4.44723200   -2.00425100   -0.27400200
 H                  5.03953200   -2.58904500    0.43346100
 H                  4.09406800   -2.66975000   -1.07751300
 H                  5.09115200   -1.23313700   -0.72530600

D 2 4 5 6 F
D 4 5 6 8 S 36 10.000000

