%nprocshared=8
%mem=14GB
# opt=modredundant b3lyp/6-31g(d,p)

QM dihedral opt

0 1
 C                  2.66153800    2.34030500    0.43569700
 C                  1.22641400    2.14980500   -0.03447900
 O                  0.66585100    3.01787400   -0.69823200
 N                  0.56105900    0.99981800    0.35970200
 C                 -0.77121300    0.86077200   -0.23217600
 C                 -1.71107900   -0.11506300    0.48235500
 O                 -1.46055300   -0.58982200    1.58692400
 N                 -2.87235600   -0.42708400   -0.18739700
 C                 -3.37438300    0.24514300   -1.37682300
 C                 -3.82849400   -1.31441000    0.46286400
 H                  2.97302200    3.33404300    0.11555000
 H                  3.34159600    1.60012600    0.00278300
 H                  2.74200200    2.26991800    1.52473800
 H                 -1.21611000    1.85936700   -0.23724900
 H                 -0.68358200    0.57490000   -1.28973100
 H                 -2.61474000    0.86737600   -1.84388700
 H                 -3.70672100   -0.49662100   -2.11282400
 H                 -4.23401700    0.88393200   -1.13134700
 H                 -4.18267700   -2.06503900   -0.25258100
 H                 -3.33736900   -1.80341500    1.30150000
 H                 -4.69708500   -0.75445400    0.83451600
 C                  1.30273800   -0.19409400    0.78418800
 H                  2.16030500    0.11560900    1.38185300
 H                  0.65698400   -0.79039700    1.42464600
 C                  1.80175500   -1.04586100   -0.38733800
 H                  2.41935200   -0.44172600   -1.07552100
 H                  0.95151200   -1.43392000   -0.97452400
 O                  2.55332600   -2.10839900    0.16159100
 C                  3.03198500   -3.01015500   -0.81372700
 H                  3.59566100   -3.78558100   -0.28992100
 H                  2.20893400   -3.48419100   -1.37129900
 H                  3.69745800   -2.51494900   -1.53846600

D 2 4 5 6 F
D 4 5 6 8 S 36 10.000000

