%nprocshared=8
%mem=14GB
# opt=modredundant b3lyp/6-31g(d,p)

QM dihedral opt

0 1
 C                  0.69440300    2.84039000    0.26014900
 C                 -0.11608500    1.64545000   -0.21200100
 O                 -1.25352200    1.79109900   -0.65679500
 N                  0.45984700    0.39638600   -0.17129400
 C                 -0.44802600   -0.72468000   -0.43148900
 C                 -1.70295700   -0.64626000    0.45974200
 O                 -1.54743100   -0.49015200    1.66850600
 N                 -2.92224900   -0.86714900   -0.11787400
 C                 -3.15294800   -0.72469000   -1.55614400
 C                 -4.09615600   -0.80815200    0.74770800
 H                  0.15743500    3.73683400   -0.04838000
 H                  1.70442900    2.85947100   -0.15887500
 H                  0.77964200    2.84424000    1.35207400
 H                 -0.68631100   -0.76342500   -1.49551500
 H                  0.07225600   -1.64972600   -0.17180100
 H                 -2.67797000   -1.52863900   -2.12869300
 H                 -4.22705600   -0.78851300   -1.73873500
 H                 -2.79236200    0.24399400   -1.91502600
 H                 -4.82346300   -1.56442800    0.43632200
 H                 -3.78031400   -0.99767800    1.77198200
 H                 -4.57303100    0.17998100    0.70686200
 C                  1.69097800    0.09525200    0.56002600
 H                  2.05246700    0.98594600    1.07259900
 H                  1.48108500   -0.64932100    1.33474400
 C                  2.79515100   -0.41513400   -0.36610100
 H                  3.02466600    0.34699200   -1.13025700
 H                  2.46318100   -1.32034600   -0.90382500
 O                  3.92394400   -0.69214500    0.43553300
 C                  5.02029200   -1.18669500   -0.30511600
 H                  5.83397200   -1.36685800    0.40099500
 H                  4.77576900   -2.13173800   -0.81497700
 H                  5.36057500   -0.46473900   -1.06391300

D 2 4 5 6 F
D 4 5 6 8 S 36 10.000000

