%nprocshared=8
%mem=14GB
# opt=modredundant b3lyp/6-31g(d,p)

QM dihedral opt

0 1
 C                  1.11289200    2.83776600   -0.82082700
 C                 -0.01784300    2.01686300   -0.22026200
 O                 -1.19175300    2.33707300   -0.40847600
 N                  0.31033000    0.92687100    0.54911900
 C                 -0.80057600    0.19863700    1.16438000
 C                 -1.37638800   -0.91768100    0.27013200
 O                 -0.64155300   -1.84791100   -0.06661100
 N                 -2.70049700   -0.87520900   -0.05817500
 C                 -3.59633900    0.25427600    0.18597100
 C                 -3.28153700   -2.01837500   -0.75302800
 H                  0.66078400    3.57080700   -1.48787300
 H                  1.82380500    2.22521500   -1.38189900
 H                  1.67147000    3.36891700   -0.04255000
 H                 -0.41250600   -0.31701300    2.04733100
 H                 -1.54866500    0.92006300    1.48716200
 H                 -3.04770100    1.19478700    0.14722000
 H                 -4.34346400    0.27674700   -0.61262700
 H                 -4.13003600    0.15664400    1.14094600
 H                 -3.57389800   -1.74459100   -1.77428400
 H                 -2.54077900   -2.81443100   -0.79474800
 H                 -4.17371000   -2.36741400   -0.22013600
 C                  1.68566200    0.51695300    0.83528300
 H                  2.34442100    1.38690900    0.79843800
 H                  1.72763200    0.13800400    1.86138900
 C                  2.23891000   -0.55312200   -0.10914500
 H                  2.14737500   -0.21776200   -1.15678100
 H                  1.66112200   -1.48019000   -0.01190500
 O                  3.59894300   -0.73242300    0.24778300
 C                  4.22324700   -1.76619400   -0.48434700
 H                  5.25578200   -1.83579100   -0.13323300
 H                  3.72618500   -2.73570000   -0.32799000
 H                  4.23008900   -1.55547300   -1.56557900

D 2 4 5 6 F
D 4 5 6 8 S 36 10.000000

