%nprocshared=8
%mem=14GB
# opt=modredundant b3lyp/6-31g(d,p)

QM dihedral opt

0 1
 C                  2.41100100    2.31366100   -0.46343200
 C                  0.92992600    2.26676200   -0.11931900
 O                  0.21013100    3.24225600   -0.31453700
 N                  0.42311000    1.08624100    0.39365500
 C                 -0.92504500    1.14813200    0.97548200
 C                 -1.69739700   -0.16512600    0.81450600
 O                 -1.77658300   -0.94460000    1.76202500
 N                 -2.26712200   -0.42542800   -0.40618200
 C                 -2.20117300    0.44292100   -1.57304700
 C                 -3.02025100   -1.65912600   -0.58422200
 H                  2.57360000    3.20139900   -1.07379400
 H                  2.75661500    1.42908500   -1.00390000
 H                  3.01422600    2.40480300    0.44683800
 H                 -0.85638800    1.30233100    2.05819700
 H                 -1.43036000    2.00877500    0.54096500
 H                 -1.58896500    1.32312700   -1.38985000
 H                 -1.76846300   -0.10080200   -2.42244600
 H                 -3.20742600    0.77160700   -1.86392600
 H                 -2.57314100   -2.27322000   -1.37624200
 H                 -3.00833600   -2.20921100    0.35495800
 H                 -4.05657700   -1.43700700   -0.86742700
 C                  1.27859800   -0.02752800    0.82286800
 H                  2.27734800    0.32936000    1.08418700
 H                  0.84606000   -0.46773400    1.72483600
 C                  1.41154100   -1.12120700   -0.23937200
 H                  1.77319900   -0.69266300   -1.19018800
 H                  0.42982000   -1.57756700   -0.44079000
 O                  2.32311900   -2.07528000    0.26326900
 C                  2.48762100   -3.18788500   -0.59096400
 H                  3.20271400   -3.86089500   -0.11263600
 H                  1.54023700   -3.72699500   -0.74573400
 H                  2.88166500   -2.89272200   -1.57641900

D 2 4 5 6 F
D 4 5 6 8 S 36 10.000000

