%nprocshared=8
%mem=14GB
# opt=modredundant b3lyp/6-31g(d,p)

QM dihedral opt

0 1
 C                  0.73016800    2.80631800   -0.22038900
 C                 -0.10802900    1.53783400   -0.28072400
 O                 -1.24685500    1.56617500   -0.74064100
 N                  0.44967600    0.36415300    0.16917700
 C                 -0.39824500   -0.82761700    0.30435600
 C                 -1.86310600   -0.51131200    0.66245500
 O                 -2.09548900   -0.04964600    1.77400000
 N                 -2.85778200   -0.93152200   -0.18902100
 C                 -2.69797800   -1.00965600   -1.63579800
 C                 -4.22463000   -0.65935800    0.24683100
 H                  0.13802900    3.60015600   -0.67391400
 H                  1.67481900    2.70953100   -0.76417000
 H                  0.96178700    3.08390400    0.81303100
 H                 -0.30798900   -1.46601800   -0.57982700
 H                 -0.02377400   -1.39858000    1.15829800
 H                 -1.70949800   -1.37395800   -1.91136900
 H                 -3.43756700   -1.70929800   -2.03756700
 H                 -2.83661600   -0.02697500   -2.10269500
 H                 -4.89982300   -1.38386700   -0.21810400
 H                 -4.27636500   -0.74303200    1.33082000
 H                 -4.54138300    0.35375100   -0.03661200
 C                  1.80584300    0.25623500    0.69945000
 H                  2.22012000    1.24639600    0.88539600
 H                  1.78206900   -0.26344800    1.66393300
 C                  2.74624300   -0.49335800   -0.24748100
 H                  2.79432900    0.02879700   -1.21856700
 H                  2.36804200   -1.51094000   -0.44453900
 O                  4.01349300   -0.53957000    0.37246500
 C                  4.98105000   -1.22642300   -0.39509800
 H                  5.91559600   -1.20739000    0.16986900
 H                  4.69278400   -2.27434000   -0.57173600
 H                  5.14508400   -0.74476100   -1.37155700

D 2 4 5 6 F
D 4 5 6 8 S 36 10.000000

