%nprocshared=8
%mem=14GB
# opt=modredundant b3lyp/6-31g(d,p)

QM dihedral opt

0 1
 C                  3.42729500    0.64473300   -0.24634600
 C                  2.14135900    1.45430400   -0.16484500
 O                  2.14042000    2.66029200   -0.38403800
 N                  0.96614000    0.78549200    0.13854400
 C                 -0.18161100    1.68538900    0.37736600
 C                 -1.49080500    0.95223200    0.68147700
 O                 -1.81885200    0.74522900    1.84759900
 N                 -2.26749800    0.56320500   -0.38194900
 C                 -1.93720500    0.79581400   -1.78130800
 C                 -3.57959700   -0.01531700   -0.12205400
 H                  4.15001200    1.24261400   -0.80137300
 H                  3.29945400   -0.32424100   -0.73499300
 H                  3.83235400    0.46500400    0.75588500
 H                  0.00981500    2.30449800    1.25983800
 H                 -0.26286100    2.36354800   -0.47225100
 H                 -0.86393000    0.92075600   -1.91767700
 H                 -2.24641200   -0.07385800   -2.37096700
 H                 -2.45598100    1.67690500   -2.18328300
 H                 -3.66094200   -1.00620700   -0.58444900
 H                 -3.70813800   -0.10359700    0.95512600
 H                 -4.37065400    0.62372200   -0.53430700
 C                  0.97677500   -0.54934100    0.75618800
 H                  1.96031900   -0.76231700    1.17852500
 H                  0.26884500   -0.56506100    1.58767400
 C                  0.62491800   -1.66272800   -0.23218200
 H                  1.29192000   -1.61812400   -1.11065200
 H                 -0.40617700   -1.53630500   -0.59889400
 O                  0.77131800   -2.88929600    0.45248400
 C                  0.43402700   -4.00849400   -0.33941800
 H                  0.57939000   -4.89830000    0.27721100
 H                 -0.61570400   -3.97328900   -0.67074300
 H                  1.07416500   -4.08597900   -1.23246100

D 2 4 5 6 F
D 4 5 6 8 S 36 10.000000

