%nprocshared=8
%mem=14GB
# opt=modredundant b3lyp/6-31g(d,p)

QM dihedral opt

0 1
 C                  0.82662700    2.69485800   -0.63835900
 C                 -0.14392400    1.58427400   -0.25263800
 O                 -1.32651400    1.66176000   -0.56918600
 N                  0.36077700    0.51440800    0.45171700
 C                 -0.50156200   -0.54715000    1.00001200
 C                 -2.02616300   -0.43250000    0.79903700
 O                 -2.70995500   -0.01328300    1.72429500
 N                 -2.56996900   -1.00510600   -0.32672200
 C                 -1.82934300   -1.17155100   -1.56639200
 C                 -4.01348300   -0.88450400   -0.48952300
 H                  0.27811600    3.38669500   -1.27629200
 H                  1.70412700    2.32648200   -1.17752100
 H                  1.17862200    3.23723900    0.24558500
 H                 -0.14897200   -1.51814200    0.63059900
 H                 -0.38298500   -0.54744400    2.08784100
 H                 -0.76798400   -1.32768200   -1.37267200
 H                 -2.20865100   -2.04780300   -2.10312900
 H                 -1.92792600   -0.28731900   -2.20871500
 H                 -4.38212000   -1.72667600   -1.08346500
 H                 -4.48088200   -0.88905300    0.49348700
 H                 -4.27916200    0.05251000   -0.99801300
 C                  1.76892100    0.39151300    0.82525700
 H                  2.23587600    1.37428000    0.89704300
 H                  1.83068300   -0.05707100    1.82223300
 C                  2.57322900   -0.47255200   -0.15023400
 H                  2.56685100   -0.01792700   -1.15561500
 H                  2.11720400   -1.47276900   -0.24489000
 O                  3.88640600   -0.56315500    0.35805600
 C                  4.74261100   -1.34289400   -0.45271000
 H                  5.72400900   -1.34966100    0.02636200
 H                  4.38386000   -2.37966500   -0.54522500
 H                  4.84270000   -0.92064600   -1.46459300

D 2 4 5 6 F
D 4 5 6 8 S 36 10.000000

