%nprocshared=8
%mem=14GB
# opt=modredundant b3lyp/6-31g(d,p)

QM dihedral opt

0 1
 C                  2.36688300    2.50740900    0.54521900
 C                  1.00916900    2.17500900   -0.05699000
 O                  0.39635500    3.01253700   -0.71371100
 N                  0.47777400    0.92556400    0.21168700
 C                 -0.78828900    0.61982600   -0.44235700
 C                 -1.76670500   -0.16651800    0.44245000
 O                 -1.51257000   -0.43552400    1.61284500
 N                 -2.94020000   -0.56024400   -0.15484100
 C                 -3.38575300   -0.18078700   -1.48607000
 C                 -3.90675800   -1.31708300    0.62925000
 H                  2.59856000    3.53460500    0.26624300
 H                  3.16051700    1.85064400    0.17664400
 H                  2.34821600    2.42699800    1.63665800
 H                 -1.21765900    1.58220700   -0.73113200
 H                 -0.61767300    0.06096600   -1.37415800
 H                 -2.64099400    0.41593700   -2.00752200
 H                 -3.59477500   -1.07313100   -2.09007400
 H                 -4.31008700    0.40894100   -1.42735600
 H                 -4.18519200   -2.23635800    0.10004500
 H                 -3.45643400   -1.56545800    1.58821800
 H                 -4.81728200   -0.72796500    0.79897400
 C                  1.29582600   -0.17998800    0.71622300
 H                  2.01202900    0.19985100    1.44596300
 H                  0.64369100   -0.87103000    1.24817100
 C                  2.05747700   -0.92203500   -0.38711800
 H                  2.71794000   -0.23086200   -0.93920500
 H                  1.35565100   -1.35068300   -1.12319900
 O                  2.80716700   -1.94353100    0.23728100
 C                  3.53529500   -2.73346100   -0.67906600
 H                  4.07078100   -3.49034400   -0.10141700
 H                  2.87286500   -3.23839800   -1.39974400
 H                  4.26633800   -2.13524500   -1.24559200

D 2 4 5 6 F
D 4 5 6 8 S 36 10.000000

