%nprocshared=8
%mem=14GB
# opt=modredundant b3lyp/6-31g(d,p)

QM dihedral opt

0 1
 C                  0.62944500    2.85448100   -0.96277600
 C                 -0.28808500    1.91819700   -0.18955100
 O                 -1.49123900    2.13203400   -0.11038400
 N                  0.26263300    0.78766400    0.38957800
 C                 -0.62790000    0.03037200    1.28067400
 C                 -1.96954500   -0.55713500    0.79185300
 O                 -2.85351800   -0.61594200    1.64160200
 N                 -2.13748300   -1.08540300   -0.46191400
 C                 -1.16798200   -1.10788800   -1.54075200
 C                 -3.46419400   -1.56565500   -0.82842900
 H                 -0.00700900    3.51129800   -1.55515700
 H                  1.32048300    2.32310500   -1.62342300
 H                  1.22323100    3.47483600   -0.28251600
 H                 -0.04766200   -0.80928500    1.67784700
 H                 -0.93232300    0.65078900    2.12812400
 H                 -0.17072000   -0.88403600   -1.17643700
 H                 -1.15717400   -2.10379200   -2.00073100
 H                 -1.42272900   -0.37744500   -2.32141900
 H                 -3.41571000   -2.61478700   -1.14571700
 H                 -4.11629400   -1.47615800    0.03755200
 H                 -3.86920600   -0.97179300   -1.65780300
 C                  1.69843600    0.64642200    0.64957300
 H                  2.22739200    1.54406100    0.33085300
 H                  1.87114900    0.54977100    1.72861100
 C                  2.32574900   -0.55822600   -0.05368600
 H                  2.23354800   -0.44849800   -1.14810100
 H                  1.80261100   -1.48910300    0.22542700
 O                  3.67989600   -0.60565300    0.33931900
 C                  4.38690400   -1.68705900   -0.23503800
 H                  5.41353500   -1.63402100    0.13346200
 H                  3.95367400   -2.65675300    0.05464600
 H                  4.39908000   -1.62857500   -1.33437900

D 2 4 5 6 F
D 4 5 6 8 S 36 10.000000

