%nprocshared=8
%mem=14GB
# opt=modredundant b3lyp/6-31g(d,p)

QM dihedral opt

0 1
 C                  1.19664700    2.85017600   -0.74183900
 C                  0.01520600    2.08279700   -0.16795700
 O                 -1.13460900    2.48162000   -0.35425900
 N                  0.27807900    0.95825700    0.57873500
 C                 -0.86235200    0.28889600    1.21107000
 C                 -1.37886600   -0.93267900    0.42605200
 O                 -0.66800200   -1.93902300    0.37218900
 N                 -2.61886000   -0.88295900   -0.14307400
 C                 -3.49682500    0.28426300   -0.18303700
 C                 -3.14929700   -2.09419100   -0.75873600
 H                  0.79307300    3.61927900   -1.39931500
 H                  1.88237400    2.21235300   -1.30560200
 H                  1.77189800    3.33577500    0.05393400
 H                 -0.52438500   -0.11841500    2.16814900
 H                 -1.62644400    1.03924300    1.40121400
 H                 -2.92315400    1.20889600   -0.13332700
 H                 -4.03088400    0.28091900   -1.13861200
 H                 -4.24672200    0.25363100    0.61918700
 H                 -3.30008700   -1.94424700   -1.83472100
 H                 -2.44014400   -2.90455900   -0.60248100
 H                 -4.11514100   -2.35362700   -0.30881200
 C                  1.63199800    0.46646900    0.84574900
 H                  2.33131000    1.30520900    0.87630700
 H                  1.64160200    0.01187600    1.84039600
 C                  2.14779400   -0.55833600   -0.16828300
 H                  2.05499800   -0.15941700   -1.19372400
 H                  1.54961200   -1.47573400   -0.11030900
 O                  3.50650400   -0.79196200    0.15967500
 C                  4.08900300   -1.81621400   -0.61886900
 H                  5.12351700   -1.92932600   -0.28552500
 H                  3.56485600   -2.77536400   -0.49037700
 H                  4.08819700   -1.56574400   -1.69173600

D 2 4 5 6 F
D 4 5 6 8 S 36 10.000000

