%nprocshared=8
%mem=14GB
# opt=modredundant b3lyp/6-31g(d,p)

QM dihedral opt

0 1
 C                  2.05056600    2.65622900    0.57136100
 C                  0.77581700    2.17431500   -0.10543500
 O                  0.06345400    2.95658500   -0.72880300
 N                  0.44296700    0.84208400    0.04098900
 C                 -0.77688300    0.38556000   -0.60103300
 C                 -1.78088700   -0.21533900    0.40045100
 O                 -1.52086500   -0.28661000    1.59739000
 N                 -2.96257200   -0.68196500   -0.12055700
 C                 -3.37795400   -0.57378800   -1.50939600
 C                 -3.93711900   -1.28860300    0.77576800
 H                  2.17895200    3.70528000    0.30766800
 H                  2.93480200    2.09516800    0.25571900
 H                  1.97212500    2.57005500    1.66010000
 H                 -1.20205400    1.25968300   -1.09972800
 H                 -0.54810100   -0.36161100   -1.37354500
 H                 -2.63311800   -0.06218000   -2.11482800
 H                 -3.54804500   -1.56879000   -1.94162100
 H                 -4.31720500   -0.01059600   -1.58398100
 H                 -4.18573900   -2.30251300    0.43857200
 H                 -3.50799800   -1.32886200    1.77505500
 H                 -4.86130500   -0.69735400    0.79991600
 C                  1.32627600   -0.15640700    0.63995400
 H                  1.91770500    0.29771300    1.43600000
 H                  0.70886300   -0.91939100    1.11489200
 C                  2.26786300   -0.80686500   -0.37819800
 H                  2.92206200   -0.04895400   -0.84267500
 H                  1.69116800   -1.27437700   -1.19512400
 O                  3.02962900   -1.77416900    0.31371700
 C                  3.94417700   -2.45716900   -0.51770500
 H                  4.47775100   -3.17589700    0.10840000
 H                  3.43334700   -3.00154100   -1.32757000
 H                  4.67515100   -1.77071300   -0.97329700

D 2 4 5 6 F
D 4 5 6 8 S 36 10.000000

