%nprocshared=8
%mem=14GB
# opt=modredundant b3lyp/6-31g(d,p)

QM dihedral opt

0 1
 C                  0.69589900    2.69951000   -0.88921200
 C                 -0.25587600    1.70758900   -0.23213000
 O                 -1.46930100    1.84303100   -0.33979200
 N                  0.29535600    0.65027900    0.45991600
 C                 -0.56978600   -0.24956800    1.24055200
 C                 -2.03530600   -0.47183800    0.81480700
 O                 -2.90750000   -0.25947900    1.64823200
 N                 -2.30181000   -1.07078000   -0.39241600
 C                 -1.33878400   -1.21706500   -1.46767700
 C                 -3.69804400   -1.19706700   -0.78960400
 H                  0.09971400    3.31525000   -1.56187600
 H                  1.49816300    2.21628300   -1.45391300
 H                  1.15757300    3.35379700   -0.14159700
 H                 -0.07508700   -1.22781800    1.27644200
 H                 -0.65179400    0.11742200    2.26856500
 H                 -0.32435900   -1.29165100   -1.07877500
 H                 -1.55652500   -2.13557700   -2.02360300
 H                 -1.37988000   -0.37122400   -2.16788900
 H                 -3.85633900   -2.16188400   -1.28385800
 H                 -4.31833200   -1.13080000    0.10191000
 H                 -3.98375300   -0.39503600   -1.48372400
 C                  1.72125300    0.54754700    0.77146500
 H                  2.21141100    1.51329400    0.64544600
 H                  1.83814200    0.27654100    1.82682100
 C                  2.44965900   -0.49009300   -0.08564500
 H                  2.38799500   -0.21215100   -1.15173100
 H                  1.97374500   -1.48060800    0.01880900
 O                  3.78935600   -0.52756700    0.35481500
 C                  4.58188700   -1.45839500   -0.35530700
 H                  5.59001300   -1.40893500    0.06166100
 H                  4.20069100   -2.48539100   -0.24566000
 H                  4.62793500   -1.21961200   -1.42906200

D 2 4 5 6 F
D 4 5 6 8 S 36 10.000000

