%nprocshared=8
%mem=14GB
# opt=modredundant b3lyp/6-31g(d,p)

QM dihedral opt

0 1
 C                  3.05069900    1.48224100   -0.40972100
 C                  1.61791400    1.91554900   -0.13651500
 O                  1.26726700    3.07590300   -0.32365500
 N                  0.72405500    0.95359900    0.30551500
 C                 -0.56658800    1.46279400    0.79750600
 C                 -1.67657500    0.40664600    0.78010300
 O                 -1.98309200   -0.17105400    1.82093300
 N                 -2.29163300    0.14230300   -0.41822800
 C                 -2.00065300    0.81820500   -1.67440900
 C                 -3.40311900   -0.79878100   -0.44726000
 H                  3.51428100    2.26107200   -1.01464500
 H                  3.12316100    0.52279900   -0.92741000
 H                  3.61016300    1.39892700    0.52886200
 H                 -0.47816600    1.75897000    1.84882500
 H                 -0.80979500    2.35418900    0.22097800
 H                 -1.05158700    1.34802700   -1.63071600
 H                 -1.93363300    0.07759500   -2.47971900
 H                 -2.79449600    1.53022700   -1.93821000
 H                 -3.20660900   -1.60175300   -1.16802200
 H                 -3.52172400   -1.22092600    0.54893300
 H                 -4.33055600   -0.29177000   -0.74253200
 C                  1.16514500   -0.35673400    0.80493500
 H                  2.20839000   -0.31630300    1.12541200
 H                  0.56928600   -0.61300400    1.68441000
 C                  1.01621200   -1.46920800   -0.23509500
 H                  1.55222300   -1.20224200   -1.16243100
 H                 -0.04435900   -1.60264900   -0.50015600
 O                  1.55050800   -2.64509800    0.33590500
 C                  1.41765000   -3.77531700   -0.50016300
 H                  1.85324000   -4.62472400    0.03076200
 H                  0.36211300   -3.99747600   -0.72144900
 H                  1.94954500   -3.64265500   -1.45566700

D 2 4 5 6 F
D 4 5 6 8 S 36 10.000000

