%nprocshared=8
%mem=16GB
# opt=modredundant b3lyp/6-31g(d,p)

QM dihedral opt

0 1
 C                  0.70644900   -2.74280700   -0.00609300
 C                  1.81039800   -1.76208300    0.35536100
 O                  2.89271900   -2.17414000    0.77667500
 N                  1.58413100   -0.41714500    0.19433100
 C                  0.30274700    0.13769800   -0.28819700
 C                 -0.65905400    0.52427200    0.87481500
 O                 -2.00367900    0.60631900    0.40368900
 C                 -2.69328200   -0.63015100    0.31950900
 C                 -4.15842200   -0.38456600    0.03622400
 C                 -4.90077300   -1.33123700   -0.67819600
 C                 -6.26591300   -1.14540500   -0.89862000
 C                 -6.90219100   -0.00165200   -0.41454100
 C                 -6.16529200    0.95118900    0.29129500
 C                 -4.80256500    0.76004000    0.51911300
 C                 -0.23556800    1.94678000    1.24846600
 C                  0.14787100    2.61838600   -0.09447300
 C                  0.43598400    1.45502600   -1.08958700
 C                  2.72739000    0.43311700    0.53220600
 C                  3.83459800    0.37219500   -0.53953000
 O                  3.53759100    0.58764700   -1.71483200
 N                  5.12236400    0.18219200   -0.12831900
 C                  5.50380400   -0.30644700    1.19625700
 C                  6.19053000    0.30605000   -1.11357400
 H                  1.05844700   -3.73660700    0.26840900
 H                  0.49966300   -2.72767100   -1.08158700
 H                 -0.23003900   -2.53407500    0.51870600
 H                 -0.15596200   -0.62951400   -0.91132800
 H                 -0.59635100   -0.18265400    1.71614800
 H                 -2.27173600   -1.27697400   -0.46562700
 H                 -2.58245100   -1.17699500    1.27324300
 H                 -4.40772900   -2.21883000   -1.06815400
 H                 -6.82878400   -1.88840900   -1.45628000
 H                 -7.96331800    0.14866800   -0.59073600
 H                 -6.65301300    1.84675000    0.66590200
 H                 -4.22397200    1.50129400    1.05924500
 H                 -1.03944200    2.46259000    1.77991900
 H                  0.62433200    1.89681600    1.92517800
 H                 -0.67624000    3.23588900   -0.46074200
 H                  1.00965200    3.28374000    0.02188600
 H                  1.40948500    1.51421300   -1.57988900
 H                 -0.32495000    1.44632400   -1.87382300
 H                  2.40067300    1.47268900    0.55321700
 H                  3.08373700    0.17563500    1.52888500
 H                  4.76997000   -1.02653900    1.55889500
 H                  6.46116400   -0.82609200    1.10646500
 H                  5.63272000    0.50884000    1.92031400
 H                  6.60417800   -0.67719300   -1.37125400
 H                  5.78317000    0.76310200   -2.01345200
 H                  6.99802400    0.92863900   -0.71248500

D 2 4 18 19 S 36 10.000000

