%nprocshared=8
%mem=14GB
# opt=modredundant b3lyp/6-31g(d,p)

QM dihedral opt

0 1
 C                 -3.24730100   -0.47622500   -0.80574600
 C                 -1.96777000   -0.62604700    0.00295500
 O                 -1.61728300   -1.72858700    0.42712400
 N                 -1.23141200    0.50899900    0.22690200
 C                 -0.05390200    0.42573700    1.09489000
 C                  1.24585000    0.66958200    0.30950800
 O                  1.56760200    1.83407500    0.05930200
 N                  1.99201900   -0.40113100   -0.09514000
 C                  1.66262600   -1.80744700    0.11360300
 C                  3.25047700   -0.15007800   -0.78679400
 H                 -3.75320200   -1.44085800   -0.79749400
 H                 -3.03071200   -0.20013600   -1.84333800
 H                 -3.91180400    0.28770900   -0.39086700
 H                 -0.10109900    1.23426200    1.83112100
 H                 -0.09267900   -0.52895900    1.61383600
 H                  0.60988800   -1.94695000    0.35751000
 H                  1.86101900   -2.35740400   -0.81333700
 H                  2.28793100   -2.24721700    0.90261400
 H                  3.21455600   -0.54925500   -1.80799200
 H                  3.42018700    0.92424000   -0.82330900
 H                  4.07678200   -0.63872600   -0.25634200
 C                 -1.62043700    1.84463600   -0.22220400
 H                 -2.12669100    1.80016500   -1.18695300
 H                 -2.28297500    2.34043200    0.50111800
 H                 -0.71526500    2.44276500   -0.33758400

D 2 4 5 6 S 36 10.000000

