%nprocshared=8
%mem=16GB
# opt b3lyp/6-31g(d,p)

QM dihedral opt

0  1
C           0.50562        -0.22921         0.18068
C          -0.10211         0.99890        -0.44541
O          -0.97480         0.90549        -1.31069
C           0.42565         2.35146         0.01422
N           0.11857         2.55870         1.44055
C           0.68178         3.84734         1.91163
C          -0.05385         5.04013         1.27570
O          -1.26025         4.95268         1.01911
N           0.67362         6.18408         0.97944
C           2.01732         6.47798         1.45391
C          -0.01113         7.25620         0.27568
H           0.17536        -1.11716        -0.36577
H           0.18932        -0.31400         1.22214
H           1.59473        -0.17180         0.12328
H           1.50568         2.36923        -0.16734
H          -0.04018         3.12191        -0.60962
H          -0.90269         2.64001         1.52545
H           0.53863         3.91843         2.99569
H           1.75390         3.85605         1.70536
H           2.69244         6.47275         0.59231
H           2.02311         7.47148         1.91191
H           2.36829         5.76152         2.19643
H          -0.69782         6.84642        -0.47112
H          -0.57973         7.84199         1.00339
H           0.71654         7.89744        -0.23057

