%nprocshared=8
%mem=16GB
# opt b3lyp/6-31g(d,p)

QM dihedral opt

0  1
C           1.51070        -3.64557         2.09481
C           0.03552        -3.46879         1.86047
O          -0.68270        -3.22661         2.82931
N          -0.48306        -3.65692         0.58269
C           0.34408        -3.73720        -0.67285
C           1.33193        -4.94569        -0.73872
O           2.32141        -4.80743        -1.78023
C           3.37525        -3.90909        -1.42850
C           4.57597        -4.03682        -2.34579
C           5.31061        -2.89326        -2.70837
C           6.49886        -3.00402        -3.43678
C           6.97482        -4.25920        -3.80586
C           6.25037        -5.40217        -3.46593
C           5.06024        -5.29265        -2.74177
C           0.42917        -6.13286        -1.10208
C          -0.75603        -5.53892        -1.86235
C          -0.47148        -4.04016        -1.95157
C          -1.91915        -3.31666         0.46511
C          -2.22039        -1.85740         0.04851
O          -1.31751        -1.01567        -0.05160
N          -3.55293        -1.53277        -0.22603
C          -4.67694        -2.45069        -0.16324
C          -3.85019        -0.15683        -0.57534
H           1.78126        -3.17667         3.04589
H           2.10594        -3.16734         1.31539
H           1.73869        -4.71144         2.18355
H           0.85499        -2.77703        -0.78020
H           1.85614        -5.18384         0.18334
H           2.99170        -2.88408        -1.46837
H           3.72595        -4.11680        -0.41076
H           4.96754        -1.90600        -2.40921
H           7.05911        -2.11023        -3.69877
H           7.90708        -4.34458        -4.35534
H           6.62283        -6.37949        -3.75653
H           4.51938        -6.19433        -2.46913
H           0.94826        -6.88700        -1.69757
H           0.06148        -6.61125        -0.18507
H          -0.87738        -5.98847        -2.85095
H          -1.67748        -5.73621        -1.30631
H          -1.37702        -3.44461        -2.08107
H           0.14702        -3.84703        -2.83825
H          -2.38093        -3.99696        -0.25120
H          -2.42759        -3.48436         1.41744
H          -5.39138        -2.08120         0.58306
H          -5.16778        -2.46100        -1.14752
H          -4.39740        -3.46686         0.09425
H          -3.57836         0.49497         0.26107
H          -3.26684         0.13082        -1.45605
H          -4.91605        -0.03269        -0.79566

