%nprocshared=8
%mem=14GB
# opt b3lyp/6-31g(d,p)

QM dihedral opt

0 1
 C                  3.31478400   -0.16115600   -0.93045300
 C                  2.13588100    0.24298200   -0.06186300
 O                  1.88456600    1.42064700    0.18117300
 N                  1.39478600   -0.78900900    0.44366000
 C                  0.16006700   -0.54708900    1.17383000
 C                 -1.05586900   -0.74583100    0.25488500
 O                 -1.28570000   -1.88605100   -0.14934400
 N                 -1.82327400    0.33407600   -0.07688200
 C                 -1.52899600    1.72119100    0.27684600
 C                 -3.03337500    0.11313900   -0.85981000
 H                  4.21000100    0.34293400   -0.55887800
 H                  3.13979800    0.19359000   -1.95041900
 H                  3.49277100   -1.23927500   -0.95428100
 H                  0.06174400   -1.29756400    1.96344000
 H                  0.23941900    0.43554400    1.63239300
 H                 -0.45784800    1.88107600    0.40346300
 H                 -1.85910700    2.36387400   -0.54508500
 H                 -2.06485300    2.03477700    1.18299600
 H                 -2.95717200    0.60470900   -1.83743700
 H                 -3.16049200   -0.95812900   -1.00463700
 H                 -3.90469300    0.52273800   -0.33487900
 C                  1.56826473   -2.13808440   -0.11383501
 H                  2.59322094   -2.43192882   -0.02427933
 H                  0.95123629   -2.82794023    0.42307731
 C                  1.16289322   -2.13560804   -1.59952266
 H                  2.01150048   -2.38613494   -2.20118868
 H                  0.80791139   -1.16333060   -1.87075042
 O                  0.12677196   -3.09789098   -1.81251153
 C                  0.51714425   -3.99714372   -2.85359462
 H                 -0.28614604   -4.67285559   -3.06105107
 H                  0.75178701   -3.44020696   -3.73658058
 H                  1.37788844   -4.55123578   -2.54214409

