%nprocshared=8
%mem=14GB
# opt=modredundant b3lyp/6-31g(d,p)

QM dihedral opt

0 1
 C                  1.03148100    2.81396400   -0.89171200
 C                 -0.05348900    1.95811500   -0.25747100
 O                 -1.24424800    2.20047500   -0.45642000
 N                  0.32871800    0.92255000    0.55799200
 C                 -0.75139600    0.13771500    1.15460600
 C                 -1.36712400   -0.88162000    0.17558700
 O                 -0.63036400   -1.70972100   -0.36158800
 N                 -2.72098800   -0.88140800    0.00456800
 C                 -3.61820500    0.18365700    0.45125000
 C                 -3.32203600   -1.95096800   -0.78393600
 H                  0.53947000    3.50857800   -1.57153700
 H                  1.75998800    2.21719800   -1.44757400
 H                  1.57727100    3.38821000   -0.13535500
 H                 -0.32164000   -0.45772300    1.96491000
 H                 -1.48685900    0.81675400    1.58413800
 H                 -3.12063400    1.15110900    0.38503600
 H                 -4.47949500    0.20903900   -0.22160800
 H                 -3.99334600    0.01122400    1.46876900
 H                 -3.70138300   -1.56604400   -1.73877700
 H                 -2.56364800   -2.70586600   -0.98234400
 H                 -4.15772600   -2.39838200   -0.23382600
 C                  1.71798200    0.56429200    0.83739100
 H                  2.35086900    1.44806700    0.73786400
 H                  1.79279700    0.24535500    1.88244400
 C                  2.27813900   -0.54246900   -0.05969600
 H                  2.18098700   -0.25537100   -1.12046700
 H                  1.70760300   -1.47037900    0.07196500
 O                  3.63931500   -0.69733100    0.30324100
 C                  4.27765800   -1.73776800   -0.40703500
 H                  5.31105800   -1.78600300   -0.05488500
 H                  3.79391200   -2.71058400   -0.23005100
 H                  4.28098200   -1.55006900   -1.49238800

D 1 2 4 5 S 36 10.000000

