%nprocshared=8
%mem=14GB
# opt=modredundant b3lyp/6-31g(d,p)

QM dihedral opt

0 1
 C                  0.71657700    2.97861200   -0.78685200
 C                 -0.23732200    2.02541300   -0.08231400
 O                 -1.44249400    2.24712100   -0.03946300
 N                  0.27667000    0.87601900    0.48518600
 C                 -0.65463000    0.09999800    1.31237200
 C                 -1.87974800   -0.67750000    0.77516700
 O                 -2.65664600   -1.02846900    1.66064600
 N                 -2.06925100   -1.03767900   -0.53259600
 C                 -1.29732400   -0.60510800   -1.68662100
 C                 -3.31933300   -1.71377300   -0.86794700
 H                  0.10745100    3.71138000   -1.31510300
 H                  1.36988100    2.46814700   -1.50104400
 H                  1.35317900    3.50804600   -0.06970600
 H                 -0.06700800   -0.64571400    1.85486200
 H                 -1.10783900    0.75745500    2.05903100
 H                 -0.28341800   -0.34376000   -1.40263400
 H                 -1.25138600   -1.42790400   -2.40844100
 H                 -1.76062000    0.26024100   -2.17792600
 H                 -3.11034400   -2.60870300   -1.46534300
 H                 -3.82276300   -1.99358300    0.05445900
 H                 -3.97173300   -1.05163300   -1.45212400
 C                  1.70499300    0.62673500    0.68196100
 H                  2.28299300    1.49487500    0.36667100
 H                  1.91290300    0.48254700    1.74932800
 C                  2.21077900   -0.59965100   -0.07981100
 H                  2.10244500   -0.44314400   -1.16707400
 H                  1.61433400   -1.49045900    0.18130300
 O                  3.56536200   -0.77572700    0.27323000
 C                  4.16300900   -1.88996200   -0.35962400
 H                  5.19905700   -1.93830500   -0.01768700
 H                  3.65543900   -2.82994500   -0.09398000
 H                  4.15370500   -1.78990400   -1.45601200

D 2 4 5 6 F
D 4 5 6 8 S 36 10.000000

