%nprocshared=8
%mem=14GB
# opt=modredundant b3lyp/6-31g(d,p)

QM dihedral opt

0 1
 C                  0.77435000    2.81417800    0.54231000
 C                 -0.07868500    1.72142800   -0.07911400
 O                 -1.20462200    1.96633800   -0.51082800
 N                  0.44653000    0.45485800   -0.17980100
 C                 -0.49151500   -0.57492700   -0.62856100
 C                 -1.66844100   -0.72063300    0.35505600
 O                 -1.41480100   -0.83855700    1.55275700
 N                 -2.93078000   -0.81058700   -0.15685300
 C                 -3.27541500   -0.39196200   -1.51649400
 C                 -4.03318100   -1.04575300    0.76898800
 H                  0.29679000    3.76705700    0.31591500
 H                  1.79915000    2.81975900    0.16078000
 H                  0.81882500    2.69794600    1.63057500
 H                 -0.80926700   -0.35633700   -1.64783000
 H                  0.03459900   -1.53294800   -0.63917100
 H                 -2.99361100   -1.14142100   -2.26620300
 H                 -4.35825400   -0.26435300   -1.57092400
 H                 -2.80615700    0.56620400   -1.75209100
 H                 -4.71421300   -1.79812500    0.35705800
 H                 -3.62097800   -1.39783600    1.71294600
 H                 -4.59909200   -0.12369200    0.95396100
 C                  1.63743600    0.00459500    0.54261500
 H                  1.98842900    0.78683100    1.21542100
 H                  1.37027800   -0.85068200    1.16996800
 C                  2.77454300   -0.37146200   -0.40733100
 H                  3.05871700    0.50234000   -1.01851500
 H                  2.44993300   -1.16079100   -1.10759000
 O                  3.85701200   -0.81507700    0.38336000
 C                  4.97897700   -1.20171200   -0.38240000
 H                  5.75284500   -1.52631500    0.31684000
 H                  4.74194500   -2.03472000   -1.06269700
 H                  5.37068900   -0.36696000   -0.98459600

D 2 4 5 6 F
D 4 5 6 8 S 36 10.000000

