%nprocshared=8
%mem=14GB
# opt=modredundant b3lyp/6-31g(d,p)

QM dihedral opt

0 1
 C                  0.80929400    2.73800500   -0.41261100
 C                 -0.09467600    1.51896900   -0.28621200
 O                 -1.24101400    1.55157100   -0.72445100
 N                  0.41969900    0.39471000    0.31748200
 C                 -0.44176500   -0.75458600    0.63422500
 C                 -1.94847200   -0.44701200    0.73628700
 O                 -2.36540100    0.07537000    1.76317700
 N                 -2.78437100   -0.95152800   -0.23295700
 C                 -2.37822100   -1.12977900   -1.62026300
 C                 -4.20619900   -0.67250000   -0.05753400
 H                  0.24714600    3.49371600   -0.95966600
 H                  1.73554100    2.52010200   -0.95289100
 H                  1.07870700    3.13978700    0.56963000
 H                 -0.23974500   -1.58299600   -0.05368700
 H                 -0.17339700   -1.09379300    1.63874200
 H                 -1.33806000   -1.44503900   -1.69378200
 H                 -2.99973100   -1.90524500   -2.07967600
 H                 -2.48580600   -0.19597400   -2.18561600
 H                 -4.78898200   -1.43907400   -0.57699100
 H                 -4.44243800   -0.68036500    1.00496100
 H                 -4.47207400    0.31291200   -0.46406800
 C                  1.80287700    0.28774200    0.77540500
 H                  2.23303600    1.27734200    0.92946200
 H                  1.82094700   -0.21834700    1.74640900
 C                  2.69140100   -0.48729100   -0.20184200
 H                  2.70685400    0.02085800   -1.18143300
 H                  2.29010500   -1.50113000   -0.36920500
 O                  3.98338000   -0.54433400    0.36330000
 C                  4.90909900   -1.24745300   -0.44067700
 H                  5.86704400   -1.23661900    0.08377600
 H                  4.60092100   -2.29266600   -0.59840200
 H                  5.03687600   -0.77318000   -1.42611300

D 2 4 5 6 F
D 4 5 6 8 S 36 10.000000

