%nprocshared=8
%mem=14GB
# opt=modredundant b3lyp/6-31g(d,p)

QM dihedral opt

0 1
 C                  0.80759000    3.04876300   -0.72930700
 C                 -0.19429100    2.13060500   -0.04475000
 O                 -1.39208400    2.39494300   -0.03118000
 N                  0.26992900    0.97418100    0.54813100
 C                 -0.69893200    0.20695400    1.33509700
 C                 -1.78480600   -0.74247000    0.77034600
 O                 -2.45831000   -1.27143700    1.65291200
 N                 -1.98373200   -1.02769500   -0.55450100
 C                 -1.38950600   -0.35164600   -1.69994600
 C                 -3.12649600   -1.87563200   -0.88784600
 H                  0.23717200    3.83134900   -1.22833900
 H                  1.41994000    2.52270400   -1.46864100
 H                  1.48493900    3.51560400   -0.00638500
 H                 -0.13885700   -0.42083000    2.03154600
 H                 -1.28576900    0.90808700    1.93472300
 H                 -0.38793100   -0.00390700   -1.47091900
 H                 -1.32070900   -1.06665000   -2.52620600
 H                 -1.99510800    0.50217500   -2.02659700
 H                 -2.82089000   -2.63782800   -1.61306700
 H                 -3.48797900   -2.34998300    0.02144400
 H                 -3.93636700   -1.28076600   -1.33043800
 C                  1.68156800    0.62521800    0.69562500
 H                  2.30742500    1.45435000    0.36715000
 H                  1.91087100    0.45730100    1.75513200
 C                  2.07793600   -0.62910000   -0.08635500
 H                  1.94705600   -0.46104400   -1.16927100
 H                  1.43092900   -1.47811200    0.19151000
 O                  3.42816900   -0.89755200    0.22355300
 C                  3.92572100   -2.05305300   -0.42180400
 H                  4.96621600   -2.17305000   -0.11248700
 H                  3.36203900   -2.95403900   -0.13524400
 H                  3.88873800   -1.95621700   -1.51794500

D 2 4 5 6 F
D 4 5 6 8 S 36 10.000000

