%nprocshared=8
%mem=14GB
# opt=modredundant b3lyp/6-31g(d,p)

QM dihedral opt

0 1
 C                  2.53028100    2.41879500    0.49815400
 C                  1.13284200    2.16307100   -0.04810400
 O                  0.55950600    3.01686800   -0.71927900
 N                  0.51726300    0.96869900    0.28968800
 C                 -0.77887200    0.74696300   -0.34630700
 C                 -1.74448000   -0.12425200    0.46655900
 O                 -1.49874000   -0.47915500    1.61600900
 N                 -2.90944200   -0.48605100   -0.16829400
 C                 -3.36873300    0.01161000   -1.45564100
 C                 -3.87379800   -1.30393900    0.55537000
 H                  2.81118900    3.42790200    0.19877600
 H                  3.26743800    1.71352100    0.10256500
 H                  2.55312000    2.34696600    1.58993300
 H                 -1.21116900    1.73689000   -0.51127900
 H                 -0.64509200    0.30535500   -1.34459200
 H                 -2.62197100    0.63662200   -1.93950400
 H                 -3.60227900   -0.82487000   -2.12638400
 H                 -4.28208200    0.60909100   -1.33350600
 H                 -4.16696000   -2.16663800   -0.05450100
 H                 -3.41496700   -1.64448300    1.48132600
 H                 -4.77687700   -0.72622100    0.79201900
 C                  1.29174800   -0.18729500    0.75456400
 H                  2.08332000    0.15517100    1.42174400
 H                  0.63380500   -0.82536500    1.34145300
 C                  1.92091400   -0.99389500   -0.38622500
 H                  2.57148600   -0.35295400   -1.00696800
 H                  1.13917400   -1.39817900   -1.05219300
 O                  2.66253200   -2.04133900    0.20368100
 C                  3.27232300   -2.89073300   -0.74511100
 H                  3.81615500   -3.65897100   -0.19068600
 H                  2.52882600   -3.37984000   -1.39402400
 H                  3.98240700   -2.34546700   -1.38678500

D 2 4 5 6 F
D 4 5 6 8 S 36 10.000000

