%nprocshared=8
%mem=14GB
# opt=modredundant b3lyp/6-31g(d,p)

QM dihedral opt

0 1
 C                  1.71887500    2.78076000    0.51802000
 C                  0.53171000    2.13098700   -0.17652900
 O                 -0.31010900    2.81216800   -0.75436800
 N                  0.43983000    0.75537600   -0.12861200
 C                 -0.73819100    0.14658900   -0.71433600
 C                 -1.76618500   -0.26120500    0.36314300
 O                 -1.51251600   -0.11722400    1.55442700
 N                 -2.94473900   -0.80846500   -0.07756100
 C                 -3.34312200   -0.94399300   -1.46866000
 C                 -3.94601100   -1.20923500    0.90119500
 H                  1.71039300    3.83713500    0.25193600
 H                  2.67658600    2.34110100    0.22520200
 H                  1.62724200    2.69141900    1.60574300
 H                 -1.17107700    0.88382700   -1.39331200
 H                 -0.44995300   -0.73601800   -1.29884400
 H                 -2.54579900   -0.64564800   -2.14582300
 H                 -3.60596100   -1.98641700   -1.68983100
 H                 -4.22235300   -0.32232900   -1.68407200
 H                 -4.21929100   -2.26180200    0.75738100
 H                 -3.52889100   -1.07077100    1.89683600
 H                 -4.85325900   -0.60020200    0.79887800
 C                  1.38033700   -0.11461900    0.57143900
 H                  1.87192100    0.42903500    1.37898000
 H                  0.82055700   -0.92217100    1.04746400
 C                  2.44158900   -0.70013100   -0.36325300
 H                  3.04581600    0.10647700   -0.81260300
 H                  1.96352800   -1.24301200   -1.19739400
 O                  3.24815800   -1.56942000    0.40387800
 C                  4.27680800   -2.17720800   -0.34891100
 H                  4.83471400   -2.82726600    0.32891100
 H                  3.87443400   -2.78525300   -1.17448800
 H                  4.96662700   -1.43234500   -0.77588900

D 2 4 5 6 F
D 4 5 6 8 S 36 10.000000

