%nprocshared=8
%mem=14GB
# opt=modredundant b3lyp/6-31g(d,p)

QM dihedral opt

0 1
 C                  1.88503600    2.72304900    0.55442500
 C                  0.65238800    2.15943400   -0.13703400
 O                 -0.12389300    2.89794800   -0.73652000
 N                  0.43840700    0.79935300   -0.04609500
 C                 -0.76105900    0.26710500   -0.66448400
 C                 -1.77455900   -0.24302100    0.37997400
 O                 -1.51581200   -0.20821300    1.57853700
 N                 -2.95420700   -0.75370400   -0.10174300
 C                 -3.36652600   -0.75784900   -1.49557300
 C                 -3.94242300   -1.25620600    0.84273800
 H                  1.94504500    3.77964800    0.29627000
 H                  2.80887800    2.22376600    0.24839400
 H                  1.79858100    2.62895400    1.64202400
 H                 -1.19240700    1.08048300   -1.25201300
 H                 -0.50274400   -0.55050100   -1.35030000
 H                 -2.58671100   -0.37049000   -2.14751800
 H                 -3.60719800   -1.77842500   -1.82014200
 H                 -4.26351800   -0.14020200   -1.63585200
 H                 -4.20892600   -2.29220400    0.59993800
 H                 -3.51646800   -1.21110000    1.84319300
 H                 -4.85555900   -0.64833000    0.80837000
 C                  1.35144300   -0.13735200    0.60319100
 H                  1.88963900    0.35963400    1.41124500
 H                  0.76139500   -0.92665700    1.07144100
 C                  2.35973900   -0.75108900   -0.37205900
 H                  2.99207600    0.03451800   -0.82016400
 H                  1.83566800   -1.25242300   -1.20445900
 O                  3.14153400   -1.67438600    0.35657500
 C                  4.11887300   -2.31775800   -0.43396500
 H                  4.66235900   -3.00554400    0.21785600
 H                  3.66577400   -2.89157400   -1.25774400
 H                  4.83261700   -1.59977100   -0.86768700

D 2 4 5 6 F
D 4 5 6 8 S 36 10.000000

