%nprocshared=8
%mem=14GB
# opt=modredundant b3lyp/6-31g(d,p)

QM dihedral opt

0 1
 C                  0.83590100    2.71370900   -0.53795400
 C                 -0.11198000    1.55102400   -0.26905700
 O                 -1.27702700    1.60492500   -0.65034100
 N                  0.38977900    0.46031800    0.40410300
 C                 -0.47247500   -0.64715500    0.84939900
 C                 -1.99677100   -0.42866200    0.77646800
 O                 -2.56641700    0.05510400    1.74680300
 N                 -2.67543900   -0.98002800   -0.28532800
 C                 -2.07839500   -1.15842300   -1.59999700
 C                 -4.12091200   -0.78638800   -0.29928700
 H                  0.28732700    3.43585300   -1.14124600
 H                  1.73873500    2.40915400   -1.07556400
 H                  1.14676300    3.19725500    0.39408300
 H                 -0.18596800   -1.56972100    0.33068600
 H                 -0.28375300   -0.80084500    1.91599600
 H                 -1.01048700   -1.36212200   -1.52493100
 H                 -2.55226800   -2.00828900   -2.10280100
 H                 -2.20441500   -0.25875700   -2.21495400
 H                 -4.58667800   -1.59525400   -0.87054400
 H                 -4.48951900   -0.79285600    0.72487500
 H                 -4.38992400    0.17447800   -0.75929200
 C                  1.78863500    0.34180200    0.81084000
 H                  2.24060600    1.32715300    0.92673500
 H                  1.83181000   -0.14064900    1.79279800
 C                  2.62801200   -0.47702400   -0.17434100
 H                  2.63498700    0.01111200   -1.16401400
 H                  2.19122400   -1.48075000   -0.31182300
 O                  3.93154600   -0.56327600    0.35927500
 C                  4.81654400   -1.30487300   -0.45614800
 H                  5.78730300   -1.31316000    0.04416700
 H                  4.47514900   -2.34313900   -0.58912300
 H                  4.93256600   -0.84958400   -1.45190300

D 2 4 5 6 F
D 4 5 6 8 S 36 10.000000

