%nprocshared=8
%mem=14GB
# opt=modredundant b3lyp/6-31g(d,p)

QM dihedral opt

0 1
 C                  1.77251000    2.76904000   -0.52077400
 C                  0.36776400    2.36200500   -0.10270100
 O                 -0.58628100    3.11210800   -0.29808600
 N                  0.20436100    1.12154300    0.48166600
 C                 -1.08958700    0.83844800    1.11385400
 C                 -1.58673300   -0.58360000    0.82729100
 O                 -1.44279800   -1.45876100    1.67951100
 N                 -2.16142600   -0.82732800   -0.39348900
 C                 -2.33391600    0.14829500   -1.46084700
 C                 -2.63535000   -2.17157600   -0.69193800
 H                  1.68166800    3.66799800   -1.12933700
 H                  2.29043200    1.99314700   -1.09045900
 H                  2.38562300    3.00213400    0.35681900
 H                 -0.98441400    0.88426400    2.20313700
 H                 -1.78291900    1.61612900    0.79861900
 H                 -1.94004500    1.12596800   -1.19055400
 H                 -1.81518000   -0.18929200   -2.36753700
 H                 -3.39799500    0.25785900   -1.70685500
 H                 -2.09369000   -2.59102900   -1.54960000
 H                 -2.47261600   -2.79746800    0.18358900
 H                 -3.70388000   -2.15277700   -0.93891500
 C                  1.32457800    0.24586200    0.84138800
 H                  2.22817600    0.83133400    1.02532400
 H                  1.07403200   -0.26738200    1.77325500
 C                  1.63438100   -0.80572400   -0.22726800
 H                  1.78771200   -0.32297500   -1.20808700
 H                  0.78878100   -1.50223900   -0.33232200
 O                  2.80129400   -1.48365100    0.18964400
 C                  3.15888700   -2.54688100   -0.66874900
 H                  4.06305200   -3.00346600   -0.25989400
 H                  2.36786500   -3.31043100   -0.72376400
 H                  3.36992700   -2.19405400   -1.69074300

D 2 4 5 6 F
D 4 5 6 8 S 36 10.000000

