%nprocshared=8
%mem=14GB
# opt=modredundant b3lyp/6-31g(d,p)

QM dihedral opt

0 1
 C                  1.30056500    2.90892900   -0.63835000
 C                  0.04376000    2.24983100   -0.09040500
 O                 -1.05672600    2.77775100   -0.25162400
 N                  0.18825900    1.06181000    0.59107000
 C                 -0.99102100    0.50164400    1.26032200
 C                 -1.39012100   -0.88055600    0.71775300
 O                 -0.84452600   -1.87870300    1.19357600
 N                 -2.32487700   -0.95843500   -0.27681500
 C                 -2.98622000    0.16660900   -0.92811600
 C                 -2.73055200   -2.27609600   -0.74944600
 H                  0.98210300    3.74514100   -1.25956300
 H                  1.91286800    2.22587400   -1.23293600
 H                  1.92625000    3.29388300    0.17430300
 H                 -0.74735400    0.32626700    2.31258000
 H                 -1.78222500    1.24524500    1.19828300
 H                 -2.51049200    1.11703500   -0.68971900
 H                 -2.93551200    0.03202800   -2.01522400
 H                 -4.04709300    0.21042700   -0.64705800
 H                 -2.47528900   -2.39999200   -1.80935300
 H                 -2.21477300   -3.03146700   -0.15985200
 H                 -3.81518100   -2.39866200   -0.64217700
 C                  1.48361900    0.42138200    0.83563500
 H                  2.26960900    1.17674800    0.90562900
 H                  1.43555200   -0.08762400    1.80129800
 C                  1.88734500   -0.59899700   -0.23321200
 H                  1.80795400   -0.15259000   -1.23995800
 H                  1.21785200   -1.46877700   -0.19369800
 O                  3.22350100   -0.96950700    0.04905900
 C                  3.69233500   -2.01220000   -0.78050100
 H                  4.72030600   -2.22816700   -0.48006800
 H                  3.08833000   -2.92538200   -0.66881000
 H                  3.68716700   -1.72321200   -1.84362500

D 2 4 5 6 F
D 4 5 6 8 S 36 10.000000

