%nprocshared=8
%mem=14GB
# opt=modredundant b3lyp/6-31g(d,p)

QM dihedral opt

0 1
 C                  1.37055300    2.93026400   -0.59936100
 C                  0.07098500    2.32980400   -0.08519800
 O                 -0.99667900    2.92014500   -0.24455800
 N                  0.13636100    1.10774300    0.54994300
 C                 -1.07142600    0.61658300    1.22282900
 C                 -1.43918900   -0.81448200    0.80615100
 O                 -1.05438500   -1.75703500    1.49894000
 N                 -2.16643000   -0.99052000   -0.34032000
 C                 -2.61416300    0.06430000   -1.24048900
 C                 -2.52174800   -2.34455300   -0.74293700
 H                  1.10875200    3.79289500   -1.21091700
 H                  1.95718200    2.22575400   -1.19484100
 H                  2.00000600    3.26830300    0.23107900
 H                 -0.88415900    0.55478000    2.29962800
 H                 -1.86143000    1.34285000    1.04249700
 H                 -2.25430500    1.04651600   -0.93835700
 H                 -2.24564300   -0.13387800   -2.25514900
 H                 -3.71091200    0.08902100   -1.28381600
 H                 -2.06259700   -2.59310100   -1.70840800
 H                 -2.16707300   -3.03700000    0.01816300
 H                 -3.60961000   -2.43573100   -0.84842300
 C                  1.39210300    0.40550400    0.82947500
 H                  2.21572300    1.11749800    0.91469400
 H                  1.29626100   -0.09780700    1.79494200
 C                  1.76261300   -0.63696200   -0.22984000
 H                  1.73299700   -0.18725200   -1.23769500
 H                  1.04375100   -1.46866500   -0.21187800
 O                  3.06512000   -1.08869300    0.08362500
 C                  3.49493400   -2.14949700   -0.74434000
 H                  4.50044400   -2.42692500   -0.41980400
 H                  2.83694600   -3.02747900   -0.65670600
 H                  3.53373000   -1.85143800   -1.80416800

D 2 4 5 6 F
D 4 5 6 8 S 36 10.000000

