%nprocshared=8
%mem=14GB
# opt=modredundant b3lyp/6-31g(d,p)

QM dihedral opt

0 1
 C                  1.03094500    2.81430600   -0.89168300
 C                 -0.05383800    1.95834200   -0.25728400
 O                 -1.24467600    2.20069400   -0.45583700
 N                  0.32867800    0.92271900    0.55792400
 C                 -0.75117900    0.13759100    1.15464100
 C                 -1.36686200   -0.88166900    0.17549100
 O                 -0.62999300   -1.70942000   -0.36208200
 N                 -2.72072000   -0.88171300    0.00455100
 C                 -3.61821200    0.18304600    0.45138100
 C                 -3.32155500   -1.95128200   -0.78410500
 H                  0.53871600    3.50916400   -1.57109000
 H                  1.75915800    2.21762200   -1.44803500
 H                  1.57710300    3.38827300   -0.13537700
 H                 -0.32117600   -0.45787700    1.96479000
 H                 -1.48670100    0.81644400    1.58435400
 H                 -3.12070400    1.15055500    0.38572300
 H                 -4.47923000    0.20866400   -0.22182300
 H                 -3.99373800    0.01012100    1.46867700
 H                 -3.70064100   -1.56635200   -1.73904600
 H                 -2.56313200   -2.70620100   -0.98230500
 H                 -4.15740100   -2.39865100   -0.23420100
 C                  1.71806000    0.56466100    0.83703400
 H                  2.35086300    1.44840300    0.73689400
 H                  1.79319100    0.24620700    1.88220600
 C                  2.27804800   -0.54248800   -0.05967300
 H                  2.18073900   -0.25582400   -1.12052900
 H                  1.70754900   -1.47032800    0.07239600
 O                  3.63925500   -0.69720400    0.30317400
 C                  4.27752100   -1.73792600   -0.40676500
 H                  5.31095100   -1.78601500   -0.05473800
 H                  3.79378200   -2.71063600   -0.22932600
 H                  4.28069900   -1.55065300   -1.49216700

D 2 4 5 6 F
D 4 5 6 8 S 36 10.000000


