%nprocshared=8
%mem=14GB
# opt=modredundant b3lyp/6-31g(d,p)

QM dihedral opt

0 1
 C                  0.74808400    2.68826600   -0.82032200
 C                 -0.21956400    1.66300300   -0.24140700
 O                 -1.42648600    1.77588800   -0.42551000
 N                  0.31408000    0.61430500    0.47478200
 C                 -0.54971000   -0.33992300    1.19102900
 C                 -2.04147600   -0.45101600    0.81525500
 O                 -2.87359100   -0.16542700    1.66706000
 N                 -2.37768400   -1.05497500   -0.37263400
 C                 -1.46171400   -1.20885400   -1.48810400
 C                 -3.79133500   -1.09790600   -0.72373900
 H                  0.17476900    3.31819000   -1.49951500
 H                  1.58153300    2.23406900   -1.36350500
 H                  1.16675200    3.32170200   -0.03070800
 H                 -0.09379300   -1.33397200    1.10207700
 H                 -0.56754900   -0.07873500    2.25385900
 H                 -0.43305100   -1.30172500   -1.14087400
 H                 -1.71489000   -2.11906300   -2.04251900
 H                 -1.51686800   -0.35394500   -2.17547800
 H                 -4.00605200   -2.02346000   -1.26824400
 H                 -4.37840000   -1.06034800    0.19175900
 H                 -4.06756200   -0.24332100   -1.35649300
 C                  1.73503200    0.50289600    0.80313500
 H                  2.22066900    1.47763200    0.74560800
 H                  1.83422000    0.16778400    1.84140300
 C                  2.48252700   -0.47850100   -0.10314300
 H                  2.43976900   -0.13560400   -1.15108500
 H                  2.00630800   -1.47364300   -0.06873700
 O                  3.81441300   -0.54170800    0.35769200
 C                  4.62107900   -1.42516500   -0.39573500
 H                  5.62257900   -1.39873000    0.03891600
 H                  4.24196800   -2.45799000   -0.35519300
 H                  4.68260200   -1.12096700   -1.45205100

D 2 4 5 6 F
D 4 5 6 8 S 36 10.000000

