%nprocshared=8
%mem=14GB
# opt=modredundant b3lyp/6-31g(d,p)

QM dihedral opt

0 1
 C                  3.31177800    0.91032400   -0.34270700
 C                  1.97576300    1.61349000   -0.15267900
 O                  1.86766600    2.81979600   -0.34152700
 N                  0.88298200    0.84390400    0.21654400
 C                 -0.31194500    1.62065200    0.59667500
 C                 -1.57750300    0.76839900    0.73332400
 O                 -1.95247100    0.40804700    1.84691700
 N                 -2.25713300    0.44208800   -0.41413400
 C                 -1.88371000    0.87998700   -1.75186900
 C                 -3.52378800   -0.26952900   -0.30427800
 H                  3.94499200    1.57349800   -0.93175400
 H                  3.22680000   -0.05730300   -0.84279800
 H                  3.79821500    0.74629700    0.62548100
 H                 -0.16866300    2.07415600    1.58346500
 H                 -0.42195400    2.43359800   -0.12053800
 H                 -0.82837300    1.14235700   -1.79976000
 H                 -2.05469000    0.06071200   -2.45866600
 H                 -2.48379000    1.73936000   -2.08125900
 H                 -3.50213600   -1.18454300   -0.90801000
 H                 -3.68400300   -0.52411800    0.74174300
 H                 -4.35207300    0.35741100   -0.65846500
 C                  1.04240500   -0.50376300    0.78471400
 H                  2.05797200   -0.64271500    1.16075000
 H                  0.37088300   -0.60782500    1.64016800
 C                  0.74322100   -1.61280100   -0.22607000
 H                  1.36216200   -1.48302100   -1.13083200
 H                 -0.31059000   -1.56550600   -0.54289600
 O                  1.02817100   -2.84165000    0.40900800
 C                  0.74207800   -3.96234000   -0.40087900
 H                  0.99318100   -4.85385800    0.17812100
 H                 -0.32319500   -4.00581100   -0.67660300
 H                  1.33759700   -3.96069100   -1.32758200

D 2 4 5 6 F
D 4 5 6 8 S 36 10.000000

