%nprocshared=8
%mem=14GB
# opt=modredundant b3lyp/6-31g(d,p)

QM dihedral opt

0 1
 C                  0.79747100    2.68714400   -0.73200500
 C                 -0.17922700    1.62306400   -0.24456900
 O                 -1.37556300    1.72045900   -0.49598800
 N                  0.33639600    0.56659800    0.47267600
 C                 -0.52765400   -0.44256700    1.10992000
 C                 -2.04064800   -0.43768500    0.80997000
 O                 -2.80993200   -0.08657400    1.69543700
 N                 -2.47048000   -1.02830800   -0.35483800
 C                 -1.62882200   -1.18327100   -1.52816600
 C                 -3.90212100   -0.99590900   -0.62481800
 H                  0.24095000    3.34791700   -1.39552100
 H                  1.65222800    2.26948700   -1.27153000
 H                  1.18458600    3.27875000    0.10457600
 H                 -0.12183200   -1.43621000    0.88190700
 H                 -0.47684000   -0.30669700    2.19475000
 H                 -0.57986600   -1.27863400   -1.24813900
 H                 -1.91941100   -2.09002100   -2.06999500
 H                 -1.72273100   -0.32229200   -2.20274800
 H                 -4.18424400   -1.88270200   -1.20155800
 H                 -4.43675800   -0.98271800    0.32306500
 H                 -4.17778000   -0.09890600   -1.19625200
 C                  1.75122600    0.44540200    0.82184200
 H                  2.23017300    1.42507100    0.83502200
 H                  1.83044700    0.04666200    1.83878500
 C                  2.52496600   -0.47468100   -0.12640800
 H                  2.50113200   -0.07021400   -1.15274100
 H                  2.05643300   -1.47316500   -0.16150300
 O                  3.84780000   -0.55563600    0.35754500
 C                  4.67680100   -1.38748100   -0.42959800
 H                  5.66895800   -1.37990500    0.02669900
 H                  4.30526500   -2.42346400   -0.45796500
 H                  4.75748400   -1.02106900   -1.46466800

D 2 4 5 6 F
D 4 5 6 8 S 36 10.000000

