%nprocshared=8
%mem=14GB
# opt=modredundant b3lyp/6-31g(d,p)

QM dihedral opt

0 1
 C                  2.21026800    2.58689400    0.56781100
 C                  0.89378400    2.17988500   -0.07813800
 O                  0.23501700    2.99406900   -0.71958200
 N                  0.45604600    0.88478200    0.12732800
 C                 -0.78600900    0.50333000   -0.52633200
 C                 -1.77769100   -0.19115600    0.42208700
 O                 -1.51878300   -0.36520900    1.60899600
 N                 -2.95778100   -0.61769100   -0.13687100
 C                 -3.38315400   -0.38018600   -1.50662600
 C                 -3.92507500   -1.30996300    0.70359900
 H                  2.39088600    3.62745600    0.30107900
 H                  3.05296900    1.97868700    0.22623700
 H                  2.15793000    2.50104300    1.65794100
 H                 -1.21135600    1.42747900   -0.92499600
 H                 -0.58676600   -0.15703200   -1.38259100
 H                 -2.65048700    0.20062800   -2.06234500
 H                 -3.54204600   -1.32996300   -2.03436600
 H                 -4.33103600    0.17321300   -1.52000400
 H                 -4.17092300   -2.28891200    0.27388300
 H                 -3.49127500   -1.44155300    1.69292000
 H                 -4.85172900   -0.72806200    0.78723900
 C                  1.30823500   -0.16950100    0.67731300
 H                  1.96166100    0.24688500    1.44510900
 H                  0.67003900   -0.89790300    1.17683800
 C                  2.16552800   -0.86590500   -0.38447100
 H                  2.82739900   -0.14067200   -0.88865900
 H                  1.52814000   -1.31390100   -1.16630300
 O                  2.91941400   -1.86215200    0.27455900
 C                  3.75021600   -2.59591200   -0.60034700
 H                  4.28120100   -3.33702200    0.00139700
 H                  3.16761800   -3.11827400   -1.37551500
 H                  4.48811400   -1.95032300   -1.10221900

D 2 4 5 6 F
D 4 5 6 8 S 36 10.000000

