%nprocshared=8
%mem=14GB
# opt=modredundant b3lyp/6-31g(d,p)

QM dihedral opt

0 1
 C                  2.78842800    2.26224700    0.32999600
 C                  1.31539400    2.13863600   -0.03391400
 O                  0.74929800    3.02829300   -0.66422100
 N                  0.62220200    1.02529100    0.41017700
 C                 -0.75499400    0.97707900   -0.09678200
 C                 -1.66549300   -0.09978100    0.49707900
 O                 -1.39832700   -0.70619500    1.53147800
 N                 -2.83371000   -0.34098500   -0.19087000
 C                 -3.37219500    0.46954800   -1.27406400
 C                 -3.76950300   -1.31331400    0.36138800
 H                  3.12118100    3.23957200   -0.01816800
 H                  3.39920700    1.49002700   -0.14803500
 H                  2.94653700    2.19115600    1.41045000
 H                 -1.20160500    1.95808600    0.09312500
 H                 -0.73252300    0.88129700   -1.18944700
 H                 -2.62995900    1.14957700   -1.68536600
 H                 -3.72446500   -0.17943700   -2.08445900
 H                 -4.22638000    1.06738900   -0.92712200
 H                 -4.12999200   -1.97223500   -0.43635600
 H                 -3.25892700   -1.89761900    1.12376100
 H                 -4.63604300   -0.81379800    0.81490700
 C                  1.33124300   -0.19830900    0.80640900
 H                  2.25614500    0.08147200    1.31050500
 H                  0.71530500   -0.74456400    1.51603200
 C                  1.67401600   -1.10532800   -0.37902200
 H                  2.24848000   -0.54956100   -1.14157700
 H                  0.75245800   -1.46627200   -0.86720400
 O                  2.42604900   -2.18881900    0.12649500
 C                  2.75520500   -3.14220200   -0.86138400
 H                  3.32852600   -3.93269100   -0.37162600
 H                  1.85588000   -3.58542200   -1.31720300
 H                  3.36795600   -2.70481300   -1.66561900

D 2 4 5 6 F
D 4 5 6 8 S 36 10.000000

